! Created with skrf 1.8.0 (http://scikit-rf.org).
# Hz S RI R 100.0 
!freq ReS11 ImS11 ReS21 ImS21 ReS12 ImS12 ReS22 ImS22
1000000.0 -0.07003110394772621 5.3790560267395484e-05 0.9954745951898856 -0.002232390432798623 0.9954867632705818 -0.0022328903913391234 -0.06990767395551704 4.9383495651138525e-05
5999000.0 -0.07003117705362652 0.0003227118573827443 0.9953891717564577 -0.01339176711615359 0.9954016266639497 -0.01339477424756748 -0.0699033457976136 0.00029622301426515
10998000.0 -0.07003135207503543 0.0005917286224569897 0.9951817276286152 -0.024549673473500903 0.9951948782932777 -0.024555221537049 -0.06989283465446716 0.0005429400333398194
15997000.0 -0.07003162272618423 0.0008609202450873987 0.9948522773291857 -0.03570488417640007 0.9948665306849505 -0.03571303501814976 -0.06987613989126891 0.000789432317845836
20996000.0 -0.07003197903218937 0.001130365824948197 0.994400843936502 -0.046856173724468916 0.994416603747746 -0.04686701719790766 -0.06985326051421258 0.0010355973587914333
25995000.0 -0.07003240734038423 0.0014001440403672892 0.9938274591019339 -0.05800231636795449 0.9938451247920632 -0.05801597021846366 -0.06982419519011579 0.0012813322496349653
30994000.0 -0.07003289033582474 0.0016703330173000288 0.9931321630738696 -0.06914208603110816 0.993152128556245 -0.06915869574423592 -0.06978894227326092 0.0015265335637384518
35993000.0 -0.07003340706096826 0.001941010198823672 0.9923150047281349 -0.08027425623661497 0.9923376572399772 -0.08029399485006956 -0.0697474998394006 0.001771097233185683
40992000.0 -0.0700339329395054 0.002212252215275553 0.9913760416047901 -0.09139760003132577 0.9914017605447427 -0.09142066791059257 -0.06969986572687406 0.002014918429284997
45991000.0 -0.0700344398043235 0.002484134755158313 0.9903153399512711 -0.10251088991353977 0.9903444957212902 -0.10253751449101002 -0.06964603758475661 0.0022578914450757563
50990000.0 -0.07003489592958219 0.002756732436933756 0.9891329747718102 -0.11361289776208242 0.9891659276240887 -0.11364333323956728 -0.06958601292795638 0.002499909580153927
55989000.0 -0.07003526606687352 0.0030301186818276304 0.9878290298830764 -0.12470239476742252 0.987866128772714 -0.12473692178191124 -0.06951978919916399 0.0027408650281282253
60988000.0 -0.07003551148543564 0.003304365587766144 0.9864035979759547 -0.13577815136507082 0.9864451794201298 -0.13581707661758177 -0.06944736383753591 0.0029806487670161015
65987000.0 -0.07003559001639066 0.003579543804563978 0.9848567806833954 -0.14683893717149626 0.9849031676277998 -0.14688259301885934 -0.0693687343539991 0.0032191504528820943
70986000.0 -0.07003545610096538 0.003855722410484034 0.9831886886542301 -0.15788352092279878 0.9832401893475747 -0.15793226493219992 -0.0692838984130283 0.003456258317019002
75985000.0 -0.07003506084266145 0.004132968790286318 0.9813994416328716 -0.16891067041636923 0.9814563485102833 -0.1689648848824823 -0.06919285392076432 0.0036918590669642965
80984000.0 -0.07003435206332552 0.004411348514883705 0.9794891685447751 -0.17991915245576792 0.9795517571209628 -0.17997924388029604 -0.0690955991192972 0.003925837791641138
85983000.0 -0.07003327436307998 0.0046909252227211595 0.9774580075875675 -0.19090773279904508 0.9775265353606432 -0.19097413133249386 -0.06899213268695867 0.0041580778709053145
90982000.0 -0.07003176918405653 0.004971760502992945 0.97530610632771 -0.20187517611072914 0.9753808116946046 -0.20194833495623515 -0.06888245384443269 0.00438846088977344
95981000.0 -0.07002977487789172 0.005253913780811309 0.9730336218025714 -0.21282024591769708 0.9731147229870217 -0.21290064069674053 -0.06876656246649283 0.004616866557602054
100980000.0 -0.07002722677691488 0.005537442204440031 0.9706407206277785 -0.2237417045691434 0.9707284146218902 -0.22382983264898237 -0.06864445919916616 0.00484317263247706
105979000.0 -0.07002405726898221 0.00582240053470226 0.9681275791096954 -0.23463831320085432 0.9682220406301434 -0.23473469298352928 -0.06851614558210375 0.0050672548510688935
110978000.0 -0.07002019587588376 0.0061088410366738006 0.9654943833628924 -0.24550883170399554 0.965595763822847 -0.24561400187676552 -0.06838162417594068 0.005288986864196326
115977000.0 -0.07001556933526984 0.006396813373767204 0.9627413294324354 -0.2563520186986078 0.9628497559303544 -0.25646653744569997 -0.06824089869439812 0.005508240178338361
120976000.0 -0.07001010168601669 0.006686364504315558 0.9598686234208448 -0.26716663151200953 0.9599841977473125 -0.26729107568758265 -0.06809397414090143 0.005724884103318933
125975000.0 -0.07000371435696941 0.006977538580757121 0.9568764816195464 -0.27795142616229157 0.956999279283383 -0.2780863904245407 -0.06794085694943956 0.005938785706385996
130974000.0 -0.06999632625898178 0.007270376851526508 0.9537651306446431 -0.28870515734708785 0.9538951999195497 -0.2888512532534439 -0.06778155512942294 0.00614980977289084
135973000.0 -0.06998785388018208 0.007564917565749469 0.9505348075768234 -0.29942657843780235 0.9506721685698749 -0.29958443350121433 -0.06761607841425252 0.006357818773768763
140972000.0 -0.06997821138437567 0.007861195880842699 0.9471857601052176 -0.31011444147945794 0.9473304038485616 -0.31028469818577914 -0.0674444384133314 0.00656267284000813
145971000.0 -0.06996731071251297 0.008159243773112385 0.9437182466750146 -0.3207674971963371 0.9438701342421651 -0.3209508119828783 -0.0672666487672206 0.006764229744287652
150970000.0 -0.06995506168712558 0.00845908995144795 0.9401325366386285 -0.3313844950035704 0.9402915982868034 -0.33158153719892364 -0.06708272530565818 0.006962344889945582
155969000.0 -0.06994137211965258 0.008760759774200762 0.9364289104102246 -0.34196418302482573 0.9365950447501984 -0.34217563375011134 -0.06689268620812136 0.007156871307440474
160968000.0 -0.06992614792055497 0.009064275169339222 0.9326076596233837 -0.35250530811624087 0.9327807328183789 -0.3527318591479849 -0.0666965521666383 0.007347659658444536
165967000.0 -0.06990929321213699 0.009369654557965554 0.9286690872916952 -0.3630066158967443 0.9288489322868724 -0.36324896849163446 -0.06649434655052364 0.007534558247704125
170966000.0 -0.06989071044396457 0.009676912781280569 0.9246135079720634 -0.37346685078488645 0.9247999237562016 -0.37372571446673336 -0.06628609557271983 0.007717413042786611
175965000.0 -0.06987030051079374 0.009986061031076904 0.9204412479304938 -0.3838847560423116 0.9206339988314878 -0.38416084735158607 -0.06607182845741719 0.007896067701822421
180964000.0 -0.06984796287289959 0.010297106783841463 0.9161526453101433 -0.394259073823987 0.916351460325985 -0.3945531150303806 -0.06585157760862007 0.008070363609337473
185963000.0 -0.06982359567870572 0.010610053738543115 0.9117480503013943 -0.40458854523529386 0.911952622468324 -0.4049012630138146 -0.06562537877932004 0.008240139920259603
190962000.0 -0.06979709588960668 0.010924901758179617 0.9072278253137216 -0.4148719103960868 0.9074378111132695 -0.4152040344672758 -0.06539327124093791 0.008405233612168682
195961000.0 -0.06976835940687663 0.011241646815154471 0.9025923451491118 -0.4251079085118136 0.9028073639557682 -0.4254601702467455 -0.06515529795268787 0.008565479545847136
200960000.0 -0.06973728120055071 0.011560280940553704 0.897841997176793 -0.43529527795177847 0.8980616307480761 -0.43566840894258785 -0.06491150573051734 0.008720710534175277
205959000.0 -0.06970375544016927 0.01188079217738426 0.892977181509035 -0.44543275633463525 0.8932009735197262 -0.44582748693138974 -0.06466194541526633 0.008870757419401805
210958000.0 -0.06966767562726837 0.012203164537839789 0.8879983111777631 -0.4555190806211692 0.8882257668001133 -0.4559361384360029 -0.0644066720397015 0.009015449158805061
215957000.0 -0.0696289347295004 0.012527377964650912 0.8829058123117467 -0.46555298721444166 0.8831363978434469 -0.46599309559394414 -0.06414574499406138 0.009154612918750624
220956000.0 -0.06958742531626494 0.012853408296575735 0.8777001243141007 -0.4755332120673406 0.8779332668558335 -0.4759970885342929 -0.06387922818976102 0.00928807417713273
225955000.0 -0.06954303969573268 0.013181227238083763 0.8723817000398542 -0.48545849079759196 0.8726167872242278 -0.4859468454632299 -0.0636071902208983 0.009415656834175378
230954000.0 -0.06949567005313544 0.013510802333282348 0.8669510059733243 -0.49532755881026364 0.8671873857470022 -0.49584109275834903 -0.06332970452320175 0.009537183331555947
235953000.0 -0.06944520859020033 0.013842096944131575 0.8614085224050458 -0.5051391514277951 0.8616455028658608 -0.5056785550718697 -0.06304684953006419 0.009652474779798597
240952000.0 -0.06939154766560521 0.014175070232990044 0.8557547436079901 -0.5148920040275692 0.8559915928988344 -0.51545795544287 -0.06275870882530746 0.009761351093870028
245951000.0 -0.06933457993632297 0.01450967714953044 0.8499901780128208 -0.5245848521870465 0.8502261242740734 -0.5251780154186543 -0.062465371292315185 0.009863631136901026
250950000.0 -0.0692741984997314 0.014845868422060588 0.8441153483819257 -0.5342164318364576 0.8443495797641609 -0.5348374551853691 -0.062166931259189415 0.009959132871933436
255949000.0 -0.06921029703635519 0.015183590553282502 0.8381307919819656 -0.5437854794190579 0.8383624567206528 -0.5444349937079538 -0.06186348863957144 0.010047673521591942
260948000.0 -0.06914276995311001 0.015522785820516015 0.8320370607546781 -0.5532907320589255 0.8322652673085525 -0.5539693488795315 -0.061555149068780415 0.010129069735552079
265947000.0 -0.0690715125269194 0.0158633922804141 0.8258347214856802 -0.5627309277362883 0.8260585387404203 -0.5634392376803199 -0.06124202403492562 0.010203137765672146
270946000.0 -0.06899642104856524 0.016205343778188986 0.8195243559710103 -0.5721048054703455 0.819742813509812 -0.5728433763461345 -0.060924231004647424 0.010269693648637201
275945000.0 -0.06891739296664516 0.01654856996136631 0.8131065611811481 -0.5814111055095514 0.8133186496237359 -0.5821804805465621 -0.06060189354314964 0.010328553395954421
280944000.0 -0.06883432703149421 0.01689299629808246 0.8065819494222642 -0.590648569529314 0.8067866208338126 -0.5914492655728527 -0.06027514142819189 0.01037953319111735
285943000.0 -0.06874712343894293 0.01723854409993227 0.7999511484944305 -0.5998159408370529 0.8001473168658177 -0.6006484465355901 -0.059944110757712575 0.010422449593754555
290942000.0 -0.06865568397376873 0.017585130549375355 0.7932148018465514 -0.6089119645845609 0.7934013436472811 -0.6097767385721795 -0.059608944050760324 0.010457119750552593
295941000.0 -0.06855991215270785 0.01793266873169997 0.7863735687277511 -0.6179353879875917 0.7865493235328151 -0.6188328570641791 -0.059269790341418875 0.010483361612740829
300940000.0 -0.06845971336688925 0.018281067671546324 0.7794281243349775 -0.6268849605526052 0.7795918955268347 -0.627815517864507 -0.05892680526541646 0.010500994159904993
305939000.0 -0.06835499502355448 0.018630232373978445 0.7723791599565647 -0.635759434310576 0.7725297155033353 -0.6367234375345313 -0.058580151139118276 0.010509837629885164
310938000.0 -0.06824566668692086 0.018980063870099546 0.765227383111516 -0.6445575640577775 0.765363456422384 -0.645555333591042 -0.05822999703060636 0.010509713754505956
315937000.0 -0.06813164021805797 0.01933045926719223 0.7579735176842607 -0.6532781076034389 0.758093808542981 -0.6543099247631057 -0.05787651882256483 0.010500446000866718
320936000.0 -0.06801282991363251 0.019681311803370665 0.7506183040546492 -0.6619198260241678 0.7507214796319389 -0.6629859312587698 -0.05751989926669214 0.010481859817912824
325935000.0 -0.06788915264338673 0.020032510906717756 0.7431624992229384 -0.6704814839250154 0.7432471951684348 -0.6715820750416033 -0.05716032802936978 0.01045378288799732
330934000.0 -0.06776052798621524 0.020383942258884416 0.7356068769295543 -0.6789618497070756 0.7356716985438764 -0.6800970801170156 -0.05679800172833636 0.010416045383124633
335933000.0 -0.06762687836469737 0.020735487863120714 0.7279522277693808 -0.6873596958414673 0.7279957512567291 -0.688529672828315 -0.056433123960114566 0.010368480225564929
340932000.0 -0.0674881291779535 0.021087026116703125 0.7201993593003639 -0.6956737991495782 0.720220133101941 -0.6968785821624288 -0.0560659053179565 0.010310923352510794
345931000.0 -0.06734420893268771 0.021438431887721435 0.7123490961462022 -0.7039029410894179 0.712345642354615 -0.7051425400652184 -0.055696563400079335 0.010243213984440655
350930000.0 -0.06719504937228035 0.021789576596182556 0.7044022800929113 -0.7120459080479271 0.704373095947557 -0.7133202817662924 -0.055325322807982705 0.010165194896838859
355929000.0 -0.06704058560379714 0.02214032829938448 0.6963597701790459 -0.7201014916390904 0.6963033296423471 -0.7214105461132242 -0.054952415134639526 0.01007671269491775
360928000.0 -0.06688075622277988 0.02249055178151177 0.6882224427793718 -0.728068489007677 0.6881371981935654 -0.7294120759150499 -0.05457807894237442 0.009977618090975192
365927000.0 -0.06671550343568892 0.02284010864739571 0.6799911916817869 -0.7359457031384501 0.679875575505817 -0.7373236182949312 -0.05420255973025307 0.009867766184008149
370926000.0 -0.06654477317986154 0.023188857420384464 0.6716669281572913 -0.7437319431706567 0.6715193547831863 -0.7451439250518284 -0.053826109890817986 0.009747016741202546
375925000.0 -0.0663685152408609 0.02353665364425638 0.6632505810228123 -0.7514260247176174 0.6630694486707693 -0.7528717530310463 -0.05344898865602102 0.009615234480901805
380924000.0 -0.06618668336708235 0.02388334998911483 0.6547430966967013 -0.7590267701912288 0.6545267893879165 -0.7605058645034736 -0.05307146203221769 0.0094722893566573
385923000.0 -0.0659992353814934 0.02422879636119237 0.6461454392467151 -0.7665330091311754 0.6458923288528342 -0.7680450275533417 -0.052693802724101686 0.009318056841950162
390922000.0 -0.06580613329037995 0.024572840016488077 0.637458590430309 -0.773943578538658 0.6371670387981876 -0.775488016474309 -0.05231629004747381 0.009152418215169843
395921000.0 -0.06560734338897313 0.024915325678165623 0.6286835497270686 -0.781257323214425 0.6283519108773532 -0.7828336121736614 -0.05193920983074998 0.008975260844430316
400920000.0 -0.06540283636384109 0.02525609565762278 0.6198213343631221 -0.7884730961008968 0.6194479567609722 -0.790080602584411 -0.051562854305139884 0.008786478471793752
405919000.0 -0.0651925873919155 0.02559498997915522 0.6108729793273618 -0.7955897586281657 0.6104562082234577 -0.7972277830850507 -0.051187521983427166 0.008585971496472788
410918000.0 -0.06497657623604575 0.025931846508116908 0.6018395373793414 -0.8026061810636517 0.6013777172191228 -0.8042739569267304 -0.05081351752731261 0.008373647256570978
415917000.0 -0.06475478733695636 0.02626650108249061 0.592722079048685 -0.8095212428651806 0.5922135559475808 -0.8112179356675744 -0.050441151603291316 0.008149420308922925
420916000.0 -0.06452720990149996 0.026598787647767616 0.5835216926258812 -0.8163338330372605 0.5829648169081019 -0.8180585396138778 -0.05007074072704816 0.007913212706590208
425915000.0 -0.06429383798709039 0.026928538395038545 0.574239484144326 -0.8230428504903186 0.5736326129425929 -0.8247945982678863 -0.04970260709638289 0.007664954273560318
430914000.0 -0.06405467058221205 0.027255583902188962 0.5648765773534875 -0.8296472044026542 0.5642180772668857 -0.8314249507818511 -0.04933707841268016 0.007404582876206201
435913000.0 -0.06380971168289401 0.02757975327809566 0.5554341136830758 -0.8361458145848717 0.5547223634900257 -0.8379484464180503 -0.048974487690971014 0.007132044691047882
440912000.0 -0.0635589703650528 0.02790087430970919 0.5459132521981027 -0.8425376118465384 0.545146645621257 -0.8443639450144401 -0.048615173058632374 0.006847294468368253
445911000.0 -0.06330246085259661 0.02821877361190989 0.5363151695447338 -0.8488215383648251 0.535492118064409 -0.850670317455587 -0.04825947754280867 0.006550295791226484
450910000.0 -0.06304020258119837 0.02853327678001959 0.5266410598868279 -0.8549965480548668 0.5257599955994058 -0.8568664461485334 -0.04790774884663896 0.0062410213294187104
455909000.0 -0.0627722202576429 0.028844208544848905 0.516892134833072 -0.8610616069415911 0.5159515133506152 -0.8629512255032163 -0.04756033911440235 0.005919453087930598
460908000.0 -0.062498543914655695 0.029151392930154126 0.5070696233546428 -0.8670156935327531 0.5060679267417781 -0.8689235624170575 -0.047217604685706745 0.005585582649436089
465907000.0 -0.062219208961125656 0.029454653412376793 0.4971747716932957 -0.8728577991929135 0.4961105114372652 -0.8747823767633276 -0.04687990583886596 0.005239411410387691
470906000.0 -0.0619342562276413 0.029753813082538876 0.4872088432598365 -0.8785869285180965 0.4860805632694133 -0.8805266018828802 -0.046547606523625704 0.004880950810257553
475905000.0 -0.06164373200725471 0.030048694810155402 0.47717311852289734 -0.8842020997108551 0.47597939815171697 -0.8861551850788243 -0.04622107408342095 0.0045102225534865885
480904000.0 -0.06134768809139756 0.030339121409031833 0.4670688948879731 -0.8897023449554816 0.4658083519776538 -0.8916670881137084 -0.04590067896735898 0.004127258823701793
485903000.0 -0.06104618180088017 0.03062491580480664 0.45689748656666623 -0.8950867107930846 0.4555687805049394 -0.8970612877087719 -0.04558679443214547 0.0037321024897715976
490902000.0 -0.060739276011896486 0.030905901204097648 0.4466602244361075 -0.9003542584962625 0.4452620592250223 -0.902336776044802 -0.045279796234184794 0.0033248073032709235
495901000.0 -0.06042703917697519 0.031181901265107715 0.43635845588851596 -0.905504064443101 0.43488958321764487 -0.9074925612641354 -0.044980062312105405 0.0029054380869360033
500900000.0 -0.06010954534081298 0.031452740269543415 0.4259935446708794 -0.910535220490213 0.4244527669903024 -0.9125276679733242 -0.044687972459978326 0.00247407091369456
505899000.0 -0.05978687415093196 0.031718243295697904 0.4155668707147362 -0.9154468343445478 0.4139530443024596 -0.9174411377459766 -0.044403907991511136 0.002030793275868817
510898000.0 -0.059459110863107914 0.03197823639254697 0.40507982995605357 -0.9202380299336946 0.4033918679743946 -0.9222320296252835 -0.044128251395521685 0.0015757042441493078
515897000.0 -0.05912634634152175 0.03223254675470575 0.3945338341452017 -0.9249079477743923 0.3927707096805555 -0.926899420625719 -0.043861385983006165 0.0011089146159553743
520896000.0 -0.058788677053584606 0.03248100289808736 0.3839303106470274 -0.9294557453389772 0.3820910597273334 -0.931442406233401 -0.04360369552614033 0.0006305470528040811
525895000.0 -0.05844620505940268 0.032723434836111336 0.3732707022310493 -0.9338805974194816 0.3713544268151729 -0.9358601009045988 -0.043355563889559884 0.0001407362063190219
530894000.0 -0.05809903799583857 0.03295967425629899 0.36255646685179227 -0.9381816964891094 0.3605623377849623 -0.9401516385618488 -0.043117374654290413 -0.0003603711674774736
535893000.0 -0.05774728905514362 0.03318955469709527 0.3517890774192904 -0.9423582530608039 0.3497163373486567 -0.9443161730871514 -0.04288951073470694 -0.0008726161059308763
540892000.0 -0.057391076958128194 0.03341291172475668 0.3409700215598066 -0.946409496042634 0.3388179878041175 -0.9483528788117036 -0.04267235398891856 -0.001395827349910376
545891000.0 -0.05703052592185462 0.033629583110139805 0.33010080136680037 -0.9503346730897176 0.32786886873415455 -0.9522609510016268 -0.04246628482299388 -0.00192982126667813
550890000.0 -0.05666576562182855 0.03383940900522482 0.31918293314221036 -0.9541330509524047 0.31687057668979823 -0.9560396063391345 -0.04227168178944823 -0.002474401785767451
555889000.0 -0.05629693114867832 0.03404223211920987 0.3082179471281059 -0.9578039158204429 0.3058247248578273 -0.9596880833985896 -0.04208892118043563 -0.00302936034816608
560888000.0 -0.055924162959318166 0.034237897894007295 0.29720738722877804 -0.961346573662852 0.29473294271261735 -0.9632056431168937 -0.04191837661609782 -0.0035944758690757404
565887000.0 -0.05554760682258412 0.0344262546789717 0.28615281072334964 -0.9647603505632288 0.2835968756523781 -0.9665915692576489 -0.041760418628533205 -0.004169514714508161
570886000.0 -0.05516741375935324 0.034607153904695355 0.27505578796898256 -0.968044593050215 0.2724181846198856 -0.9698451688685369 -0.04161541424186701 -0.0047542306919577115
575885000.0 -0.054783739977145154 0.03478045025569598 0.2639179020947809 -0.9711986684228492 0.2611985457078227 -0.9729657727313448 -0.0414837265489087 -0.005348365055378024
580884000.0 -0.054396746799226216 0.034946001841830956 0.2527407486864852 -0.9742219650705397 0.24993964974887029 -0.97595273580409 -0.0413657142848999 -0.005951646524669753
585883000.0 -0.05400660058822446 0.03510367036826321 0.24152593546206388 -0.9771138927873867 0.23864320189071273 -0.978805437654677 -0.04126173139885923 -0.006563791319866287
590882000.0 -0.05361347266428492 0.035253321303812014 0.2302750819383202 -0.9798738830805923 0.2273109211561366 -0.9815232828855317 -0.041172126623047686 -0.0071845032101953525
595881000.0 -0.053217539217788476 0.03539482404751359 0.21898981908863308 -0.9825013894726885 0.2159445399884346 -0.9841057015486578 -0.04109724304108131 -0.007813473578160987
600880000.0 -0.05281898121666791 0.03552805209322378 0.2076717889919606 -0.98499588779733 0.20454580378233325 -0.9865521495505707 -0.04103741765523153 -0.00845038149878393
605879000.0 -0.05241798430836029 0.03565288319209071 0.1963226444732465 -0.9873568764883887 0.19311647040070312 -0.9888621090465584 -0.04099298095345113 -0.009094893834112602
610878000.0 -0.05201473871643569 0.03576919951272642 0.18494404873536757 -0.9895838768620984 0.18165830967731347 -0.991035088823731 -0.040964256476685605 -0.00974666534309564
615877000.0 -0.05160943913195438 0.035876887798909365 0.17353767498277767 -0.991676433391994 0.17017310290592885 -0.9930706246723282 -0.04095156038702327 -0.010405338806889482
620876000.0 -0.05120228459960265 0.035975839524647286 0.1621052060370047 -0.9936341139764003 0.15866264231605973 -0.9949682797447583 -0.04095520103724347 -0.011070545169653574
625875000.0 -0.05079347839866745 0.03606595104643192 0.15064833394416483 -0.9954565101982238 0.14712873053570322 -0.9967276449018512 -0.040975478542336706 -0.011741903694860755
630874000.0 -0.050383227918916064 0.036147123752520605 0.1391687595746676 -0.997143237576804 0.1355731800414296 -0.9983483390458205 -0.04101268435356241 -0.012419022137134
635873000.0 -0.04997174453144714 0.03621926420907446 0.12766819221529016 -0.9986939358115892 0.12399781259619282 -0.9998300094394348 -0.04106710083561733 -0.013101496929594177
640872000.0 -0.04955924345458624 0.03628228430299219 0.11614834915380663 -1.0001082690174026 0.11240445867526275 -1.0011723320109145 -0.04113900084749221 -0.013788913386687111
645871000.0 -0.04914594361491477 0.03633610138127508 0.10461095525636861 -1.001385925951066 0.10079495688069942 -1.0023750116440822 -0.04122864732759057 -0.0144808459224298
650870000.0 -0.04873206750350656 0.03638063838675939 0.0930577425378294 -1.0025266202291616 0.08917115334480358 -1.0034377824533012 -0.04133629288368456 -0.015176858283999105
655869000.0 -0.04831784102746989 0.03641582399005949 0.08149044972522747 -1.003530090536703 0.07753490112300729 -1.0043604080427615 -0.04146217938828548 -0.015876503800561385
660868000.0 -0.047903493356887636 0.03644159271756125 0.06991082181463577 -1.004396100826506 0.06588805957667808 -1.0051426817496782 -0.04160653758000046 -0.016579325647218316
665867000.0 -0.04748925676725742 0.03645788507531067 0.05832060962159788 -1.0051244405090463 0.054232493746333155 -1.0057844268709877 -0.041769586671444446 -0.01728485712392564
670866000.0 -0.04707536647754002 0.036464647668646204 0.04672156932538077 -1.005714924632595 0.04257007371577799 -1.0062854968731443 -0.04195153396427833 -0.017992621949214145
675865000.0 -0.046662060483921346 0.03646183331741966 0.035115462007269685 -1.006167394053435 0.030902673967701196 -1.0066457755846314 -0.04215257447193189 -0.018702134568525593
680864000.0 -0.04624957938941224 0.03644940116666092 0.023504053183151095 -1.0064817155959576 0.01923217273127066 -1.006865177370831 -0.04237289055057065 -0.019412900476950313
685863000.0 -0.04583816622940112 0.036427316792540645 0.011889112330623348 -1.0066577822024554 0.007560451322301866 -1.0069436472908944 -0.042612651538856405 -0.02012441655613167
690862000.0 -0.04542806629328896 0.03639555230348491 0.0002724124108900699 -1.006695513072421 -0.00411060652342968 -1.0068811612363098 -0.04287201340704645 -0.020836171425084482
695861000.0 -0.04501952694233864 0.03635408643630788 -0.011344270614310774 -1.0065948537911786 -0.015779115323132524 -1.006677726050838 -0.043151118415965285 -0.021547645804647658
700860000.0 -0.044612797423870885 0.036302904647220795 -0.0229591582704751 -1.0063557764476678 -0.027443188525592396 -1.0063333796315581 -0.04345009478637463 -0.022258312895276276
705859000.0 -0.044208128681954166 0.03624199919759023 -0.03457047006253358 -1.005978279741231 -0.03910093919479254 -1.005848191010743 -0.043769056379262594 -0.022967638767849862
710858000.0 -0.043805773164727856 0.03617136923431083 -0.0461764239712067 -1.0054623890772176 -0.050750480697930714 -1.0052222604183358 -0.04410810238755203 -0.023675082767162934
715857000.0 -0.04340598462851304 0.036091020864672516 -0.057775236953238635 -1.0048081566512823 -0.0623899273971823 -1.0044557193248131 -0.04446731703972769 -0.024380097927734
720856000.0 -0.04300901793886462 0.03600096722559786 -0.06936512544522111 -1.0040156615222058 -0.07401739534455873 -1.0035487304642365 -0.04484676931585851 -0.025082131401556927
725855000.0 -0.04261512886872642 0.03590122854713435 -0.08094430587071923 -1.003085009673118 -0.08563100297919479 -1.0025014878373328 -0.04524651267649046 -0.02578062489739475
730854000.0 -0.042224573893846866 0.03579183221008718 -0.09251099515040197 -1.0020163340609798 -0.09722887182639034 -1.0013142166944564 -0.04566658480485666 -0.026475015131201898
735853000.0 -0.04183760998563192 0.03567281279768638 -0.10406341121487821 -1.0008097946542038 -0.10880912719772672 -0.9999871734983159 -0.046107007362851615 -0.027164734287236734
740852000.0 -0.041454494401599574 0.03554421214118303 -0.11559977351993285 -0.9994655784582966 -0.12036989889156981 -0.9985206458663742 -0.04656778576118963 -0.027849210489415004
745851000.0 -0.04107548447361882 0.03540607935927685 -0.1271183035638511 -0.9979838995294157 -0.13190932189326754 -0.9969149524928588 -0.047048908944156455 -0.02852786828243381
750850000.0 -0.04070083739410709 0.035258470891280265 -0.13861722540651958 -0.9963649989757324 -0.14342553707434405 -0.9951704430503377 -0.04755034918934283 -0.029200129122181718
755849000.0 -0.040330810000376714 0.03510145052393187 -0.1500947661899834 -0.9946091449465202 -0.15491669188998908 -0.9932874980708472 -0.04807206192274074 -0.029865411874933124
760848000.0 -0.03996565855731069 0.034935089411773985 -0.16154915666013617 -0.9927166326088693 -0.1663809410741426 -0.9912665288065928 -0.048613985549544936 -0.030523133324812393
765847000.0 -0.03960563853856516 0.03475946609101731 -0.17297863168921634 -0.9906877841119637 -0.177816447331468 -0.9891079770702527 -0.0491760413010083 -0.031172708688996936
770846000.0 -0.039251004406490445 0.034574666486820026 -0.18438143079878083 -0.9885229485388418 -0.18922138202551195 -0.9868123150549573 -0.04975813309765841 -0.03181355214011835
775845000.0 -0.038902009390968675 0.03438078391391478 -0.19575579868281723 -0.9862225018455957 -0.20059392586234576 -0.9843800451340372 -0.050360147429176425 -0.032445077335303
780844000.0 -0.038558905267366855 0.034177919070521326 -0.2070999857306649 -0.9837868467879409 -0.21193226956899425 -0.981811699640658 -0.050981953251214525 -0.03306669795128785
785843000.0 -0.038221942133813774 0.03396618002549127 -0.2184122485493934 -0.981216412835135 -0.2232346145659448 -0.9791078406274921 -0.051623401899403565 -0.03367782822503173
790842000.0 -0.037891368188003094 0.03374568219863511 -0.22969085048530474 -0.9785116560711952 -0.23449917363305545 -0.9762690596066008 -0.05228432702078646 -0.03427788349923509
795841000.0 -0.0375674295037319 0.033516548334189704 -0.24093406214420524 -0.9756730590834095 -0.24572417156816512 -0.973295977269728 -0.05296454452289129 -0.03486628077216947
800840000.0 -0.037250369807388946 0.03327890846738811 -0.25214016191010485 -0.9727011308381177 -0.25690784583773535 -0.9701892431892304 -0.053663852540628824 -0.035442439251213424
805839000.0 -0.03694043025460152 0.03303289988410343 -0.2633074364619868 -0.9695964065437623 -0.26804844721884263 -0.9669495354998997 -0.05438203142118534 -0.03600578090948124
810838000.0 -0.03663784920726238 0.03277866707354341 -0.274434181288298 -0.9663594475012195 -0.2791442404318661 -0.9635775605619601 -0.05511884372705531 -0.03655573104492368
815837000.0 -0.03634286201114832 0.032516361673977597 -0.2855187011988046 -0.962990840941422 -0.2901935047632093 -0.960074052605531 -0.05587403425733114 -0.03709171884127989
820836000.0 -0.03605570077435186 0.032246142411488515 -0.29655931083345677 -0.9594911998503084 -0.30119453467742285 -0.9564397733569069 -0.056647330087353176 -0.037613177930247446
825835000.0 -0.035776594146748025 0.03196817503174362 -0.3075543351679042 -0.9558611627811293 -0.3121456404180903 -0.9526755116469872 -0.05743844062679332 -0.0381195469542404
830834000.0 -0.03550576710071348 0.03168263222479133 -0.31850211001530576 -0.9521013936541627 -0.32304514859686445 -0.9487820830022478 -0.05824705769622066 -0.03861027012909894
835833000.0 -0.035243440713324345 0.031389693542893 -0.32940098252407257 -0.9482125815438956 -0.3338914027700518 -0.9447603292186516 -0.059072855622182785 -0.03908479780611355
840832000.0 -0.03498983195025346 0.031089545311408118 -0.34024931167118816 -0.9441954404537453 -0.3446827640021544 -0.9406111179189218 -0.05991549135080391 -0.039542587032726104
845831000.0 -0.03474515345159088 0.030782380532758558 -0.3510454687507429 -0.9400507090783905 -0.3554176114158026 -0.9363353420936272 -0.060774604579880744 -0.03998310211127023
850830000.0 -0.03450961331981362 0.030468398783504616 -0.3617878378573282 -0.9357791505538187 -0.3660943427275195 -0.9319339196265496 -0.06164981790943517 -0.040405815155114
855829000.0 -0.03428341491012664 0.03014780610457183 -0.3724748163639287 -0.9313815521951722 -0.3767113747687831 -0.9274077928048157 -0.06254073701065978 -0.04081020664157097
860828000.0 -0.034066756623395915 0.029820814884676524 -0.383104815393958 -0.9268587252225259 -0.3872671439918682 -0.9227579278143114 -0.06344695081316462 -0.041195765960947546
865827000.0 -0.03385983170190498 0.029487643737004736 -0.3936762602870816 -0.922211504474706 -0.3977601069599692 -0.9179853142209056 -0.06436803171041519 -0.04156199196109936
870826000.0 -0.03366282802814791 0.029148517369205713 -0.4041875910584719 -0.9174407481112921 -0.40818874082112483 -0.9130909644380241 -0.06530353578323086 -0.04190839348687362
875825000.0 -0.033475927926888284 0.02880366644677049 -0.4146372628511471 -0.9125473373029445 -0.41855154376549075 -0.9080759131811507 -0.066253003041179 -0.0422344899138202
880824000.0 -0.03329930797069839 0.0284533274498718 -0.4250237463810378 -0.9075321759102226 -0.42884703546551944 -0.9029412169098259 -0.06721595768169729 -0.042539811675560535
885823000.0 -0.03313313878920068 0.02809774252374922 -0.43534552837444307 -0.9023961901510497 -0.4390737574986416 -0.8976879532577486 -0.06819190836673437 -0.042823900784211805
890822000.0 -0.03297758488222898 0.02773715932273326 -0.4456011119975256 -0.8971403282570177 -0.44923027375205066 -0.8923172204515891 -0.06918034851669416 -0.04308631134326953
895821000.0 -0.03283280443712375 0.0273718308480049 -0.45578901727751003 -0.8917655601187153 -0.45931517080923107 -0.8868301367191422 -0.07018075662143551 -0.04332661005236459
900820000.0 -0.03269894915037241 0.027002015279199862 -0.46590778151524515 -0.8862728769202849 -0.46932705831788313 -0.8812278396874593 -0.07119259656807005 -0.04354437670331611
905819000.0 -0.03257616405380877 0.026627975799969575 -0.4759559596888025 -0.8806632907634199 -0.4792645693389284 -0.8755114857716093 -0.07221531798526852 -0.043739204666916005
910818000.0 -0.032464587345576786 0.02624998041762188 -0.4859321248477801 -0.87493783428103 -0.48912636067630133 -0.8696822495547318 -0.07324835660378297 -0.04391070136988915
915817000.0 -0.032364350226064445 0.025868301776968992 -0.4958348684979915 -0.8690975602408104 -0.4989111131872596 -0.8637413231600555 -0.07429113463284844 -0.04405848876148745
920816000.0 -0.03227557673900658 0.025483216968518848 -0.5056628009762247 -0.8631435411389581 -0.5086175320729719 -0.8576899156155591 -0.07534306115214241 -0.04418220376918723
925815000.0 -0.03219838361795818 0.025095007331153975 -0.5154145518147573 -0.8570768687842968 -0.5182443471491635 -0.8515292522119666 -0.07640353251892754 -0.04428149874297245
930814000.0 -0.032132880138329496 0.024703958249445646 -0.5250887700953266 -0.8508986538730832 -0.5277903130966328 -0.8452605738547719 -0.07747193279001457 -0.04435604188770263
935813000.0 -0.03207916797517284 0.024310358945762965 -0.5346841247922551 -0.8446100255547602 -0.5372542096914716 -0.8388851364109873 -0.07854763415814796 -0.04440551768307429
940812000.0 -0.032037341066907164 0.023914502267339433 -0.5441993051044417 -0.8382121309889673 -0.5466348420148538 -0.8324042100513334 -0.07962999740240745 -0.044429627290704016
945811000.0 -0.032007485485161656 0.02351668446846758 -0.5536330207759373 -0.8317061348940912 -0.555931040642277 -0.8258190785885641 -0.08071837235220683 -0.044428088947874776
950810000.0 -0.03198967931091363 0.02311720498799958 -0.5629840024048244 -0.8250932190876765 -0.5651416618121791 -0.8191310388126477 -0.08181209836444872 -0.04440063834750277
955809000.0 -0.03198399251708965 0.022716366222337775 -0.5722510017401418 -0.8183745820190166 -0.5742655875738618 -0.8123413998235153 -0.08291050481338351 -0.044347029003898954
960808000.0 -0.03199048685780161 0.022314473294104364 -0.5814327919665879 -0.8115514382942552 -0.5833017259146995 -0.8054514823620832 -0.08401291159271419 -0.04426703260391685
965807000.0 -0.032009215764367854 0.02191183381668789 -0.590528167976762 -0.8046250181943367 -0.5922490108666179 -0.7984626181402668 -0.08511862962946379 -0.04416043934309428
970806000.0 -0.03204022424828448 0.02150875765486765 -0.5995359466306946 -0.7975965671861589 -0.6011064025918694 -0.7913761491706921 -0.08622696140912112 -0.044027058246414424
975805000.0 -0.032083548811284106 0.021105556681725503 -0.6084549670024487 -0.7904673454272887 -0.6098728874481493 -0.7841934270968144 -0.08733720151156449 -0.04386671747333025
980804000.0 -0.03213921736263232 0.020702544532058293 -0.6172840906135599 -0.7832386272646001 -0.618547478033124 -0.7769158125241432 -0.08844863715725504 -0.043679264606713133
985803000.0 -0.03220724914379096 0.02030003635250981 -0.6260222016531171 -0.775911700727227 -0.6271292132084693 -0.7695446743532758 -0.08956054876317719 -0.04346456692540661
990802000.0 -0.03228765466057906 0.019898348548648675 -0.63466820718428 -0.7684878670141978 -0.6356171581035408 -0.7620813891154287 -0.09067221050800355 -0.04322251166008109
995801000.0 -0.03238043562295454 0.019497798529220012 -0.6432210373370506 -0.760968439977163 -0.6440104040988266 -0.7545273403111521 -0.09178289090594499 -0.042953006232109604
1000800000.0 -0.0324855848925243 0.01909870444780634 -0.6516796454871205 -0.753354745598601 -0.6523080687893477 -0.7468839177529087 -0.09289185338874349 -0.042655978475197545
1005799000.0 -0.032603086437897215 0.01870138494213718 -0.6600430084206326 -0.7456481214659246 -0.6605092959282055 -0.7391525169121808 -0.0939983568952613 -0.04233137683952297
1010798000.0 -0.03273291529797405 0.01830615887129039 -0.6683101264847102 -0.7378499162418926 -0.6686132553504982 -0.7313345382717678 -0.09510165646810549 -0.04197917057815893
1015797000.0 -0.032875037553268094 0.017913345051032488 -0.6764800237236115 -0.7299614891317571 -0.6766191428778401 -0.7234313866839269 -0.09620100385673354 -0.041599349915572
1020796000.0 -0.03302941030533645 0.01752326198755094 -0.6845517480003841 -0.7219842093475667 -0.6845261802037548 -0.7154444707349871 -0.09729564812647117 -0.041191926198007996
1025795000.0 -0.03319598166440435 0.017136227609831557 -0.692524371103917 -0.7139194555700695 -0.6923336147602243 -0.7073752021170704 -0.09838483627287695 -0.04075693202559387
1030794000.0 -0.03337469074523926 0.016752559000941154 -0.7003969888412788 -0.705768615408646 -0.7000407195657052 -0.6992249950075285 -0.09946781384087702 -0.040294421366007104
1035793000.0 -0.03356546767134493 0.01637257212847582 -0.7081687211152718 -0.6975330848597238 -0.7076467930549325 -0.6909952654566982 -0.10054382554810802 -0.039804469649579136
1040792000.0 -0.03376823358751399 0.01599658157444014 -0.7158387119871238 -0.68921426776412 -0.7151511588908716 -0.6826874307845616 -0.10161211591187441 -0.03928717384571853
1045791000.0 -0.03398290068079251 0.01562490026482097 -0.7234061297242619 -0.680813575263761 -0.7225531657591677 -0.6743029089868787 -0.10267192987916386 -0.03874265252056306
1050790000.0 -0.034209372209876916 0.015257839199130575 -0.7308701668331375 -0.6723324252582482 -0.7298521871454992 -0.6658431181513536 -0.1037225134591308 -0.03817104587577937
1055789000.0 -0.034447542542976765 0.014895707180182767 -0.7382300400770624 -0.6637722418617137 -0.7370476210962215 -0.6573094758843707 -0.10476311435747389 -0.037572515768454134
1060788000.0 -0.034697297204154445 0.014538810544379178 -0.745484990479054 -0.6551344548604404 -0.7441388899627303 -0.6487033987488248 -0.10579298261213696 -0.036947245712038244
1065787000.0 -0.034958512928144524 0.01418745289277807 -0.7526342833096974 -0.646420499171708 -0.7511254401299846 -0.6400263017135531 -0.10681137122975515 -0.036295440858318394
1070786000.0 -0.0352310577236568 0.013841934823218688 -0.7596772080600289 -0.6376318143043264 -0.7580067417296347 -0.6312795976148566 -0.107817536822272 -0.035617327960412476
1075785000.0 -0.03551479094514186 0.013502553663776926 -0.7666130783994932 -0.6287698438213304 -0.7647822883382323 -0.6224646966305837 -0.10881074024316312 -0.03491315531680236
1080784000.0 -0.035809563373005185 0.01316960320782985 -0.7734412321190137 -0.6198360348052987 -0.7714515966609973 -0.6135830057672234 -0.1097902472226961 -0.034183192696430574
1085783000.0 -0.036115217302233285 0.01284337345099856 -0.7801610310592462 -0.6108318373267673 -0.7780142062016472 -0.6046359283604514 -0.11075532900166324 -0.033427731244910004
1090782000.0 -0.03643158663939332 0.012524150330252292 -0.7867718610240942 -0.6017587039162006 -0.7844696789187858 -0.5956248635895351 -0.1117052629630306 -0.03264708337190637
1095781000.0 -0.036758497007958045 0.012212215465439744 -0.793273131679591 -0.5926180890399917 -0.7908175988693856 -0.5865512060059956 -0.11263933326094333 -0.031841582619773386
1100780000.0 -0.03709576586189504 0.011907845903526781 -0.7996642764382546 -0.5834114485809505 -0.7970575718398852 -0.5774163450769039 -0.11355683144654272 -0.03101158351353481
1105779000.0 -0.03744320260745314 0.011611313865809145 -0.805944752329046 -0.574140239323744 -0.8031892249654512 -0.5682216647431665 -0.11445705709004803 -0.030157461392323556
1110778000.0 -0.03780060873306897 0.011322886498371668 -0.8121140398530795 -0.5648059184457481 -0.8092122063379524 -0.5589685429931355 -0.11533931839856033 -0.029279612222399276
1115777000.0 -0.03816777794730492 0.01104282562606032 -0.8181716428252427 -0.5554099430137635 -0.8151261846032118 -0.5496583514518569 -0.11620293282906029 -0.02837845239189082
1120776000.0 -0.03854449632472839 0.010771387510235283 -0.8241170882019029 -0.5459537694870507 -0.8209308485481 -0.5402924549862544 -0.11704722769606912 -0.027454418487409215
1125775000.0 -0.03893054245961855 0.010508822610565668 -0.8299499258948941 -0.5364388532271276 -0.8266259066780531 -0.5308722113265232 -0.1178715407734556 -0.02650796705270683
1130774000.0 -0.03932568762739612 0.010255375351126719 -0.835669728571991 -0.526866648014775 -0.8322110867855932 -0.5213989707039827 -0.11867522088986958 -0.025539574329558227
1135773000.0 -0.0397296959536487 0.010011283891057177 -0.8412760914440891 -0.51723860557468 -0.8376861355104422 -0.5118740755056291 -0.11945762851730446 -0.024549735981062627
1140772000.0 -0.040142324590619366 0.009776779900027961 -0.8467686320393393 -0.5075561751081547 -0.8430508178918241 -0.5022988599455895 -0.12021813635227933 -0.023538966797573054
1145771000.0 -0.04056332390102188 0.00955208833877292 -0.8521469899644799 -0.49782080283434543 -0.8483049169135521 -0.49267464975367853 -0.12095612988915982 -0.022507800385473193
1150770000.0 -0.04099243764903249 0.009337427244924052 -0.8574108266536391 -0.4880339315403529 -0.853448233042504 -0.48300276188122254 -0.12167100798512469 -0.02145678883903846
1155769000.0 -0.04142940319829994 0.009133007524395546 -0.8625598251048938 -0.4781970001406695 -0.858480583761089 -0.4732845042243 -0.12236218341631146 -0.020386502395619618
1160768000.0 -0.04187395171681058 0.008939032748548091 -0.8675936896048726 -0.46831144324632656 -0.8634018030943184 -0.46352117536453197 -0.12302908342466493 -0.01929752907441289
1165767000.0 -0.04232580838843449 0.00875569895736363 -0.8725121454417288 -0.4583786907441544 -0.8682117411320799 -0.4537140643275281 -0.12367115025503951 -0.0181904742990798
1170766000.0 -0.04278469263097148 0.008583194468859419 -0.8773149386067934 -0.44840016738651733 -0.8729102635472333 -0.4438644503590736 -0.12428784168209764 -0.01706596050449784
1175765000.0 -0.04325031832050801 0.008421699694956673 -0.8820018354852627 -0.43837729239191575 -0.8774972511101348 -0.43397360271913327 -0.12487863152656645 -0.01592462672793001
1180764000.0 -0.043722394021888156 0.008271386964017115 -0.886572622536257 -0.428311479056786 -0.8819725992001942 -0.4240427804937092 -0.12544301016041842 -0.014767128184914725
1185763000.0 -0.04420062322509843 0.008132420350254957 -0.8910271059626289 -0.41820413437887605 -0.8863362173150828 -0.4140732324245878 -0.1259804850005548 -0.013594135830186321
1190762000.0 -0.044684704587349154 0.008004955510225717 -0.8953651113708958 -0.4080566586925134 -0.8905880285781904 -0.4040661967569829 -0.12649058099057503 -0.012406335903943994
1195761000.0 -0.0451743321806415 0.007889139526584063 -0.8995864834216777 -0.39787044531609345 -0.8947279692449378 -0.39402290110505733 -0.1269728410702262 -0.011204429463800424
1200760000.0 -0.04566919574459222 0.007785110759296171 -0.9036910854710589 -0.38764688021210714 -0.8987559882085491 -0.3839445623352973 -0.12742682663213886 -0.009989131902748527
1205759000.0 -0.04616898094428671 0.007692998704487388 -0.9076787992032671 -0.3773873416599957 -0.902672046505878 -0.373832386467689 -0.12785211796546023 -0.008761172453492451
1210758000.0 -0.0466733696329236 0.0076129238610978586 -0.9115495242551171 -0.36709319994212813 -0.9064761168238819 -0.3636875685946242 -0.12824831468600603 -0.007521293679500998
1215757000.0 -0.047182040119007854 0.007544997605507978 -0.9153031778326285 -0.35676581704316657 -0.9101681830073389 -0.35351129281745 -0.12861503615256753 -0.006270250953146848
1220756000.0 -0.047694667437845666 0.007489322074291349 -0.9189396943202836 -0.34640654636307533 -0.9137482395683821 -0.34330473220055424 -0.12895192186900706 -0.0050088119213046395
1225755000.0 -0.0482109236270858 0.007445990055243533 -0.9224590248833692 -0.33601673244402214 -0.9172162911984392 -0.3330690487428637 -0.12925863187180078 -0.0037377559587913165
1230754000.0 -0.04873047800605037 0.007415084886825948 -0.925861137063865 -0.3255977107113925 -0.9205723522831427 -0.3228053933666091 -0.12953484710268418 -0.0024578736100339
1235753000.0 -0.049252997458591144 0.007396680366159011 -0.9291460143703545 -0.3151508072291335 -0.9238164464207846 -0.31251490592320363 -0.12978026976607074 -0.0011699660193641812
1240752000.0 -0.049778146719204296 0.007390840665682426 -0.9323136558624393 -0.3046773384696213 -0.9269486059448668 -0.30219871521604885 -0.1299946236709233 0.0001251556496550808
1245751000.0 -0.05030558866213068 0.007397620258603977 -0.9353640757301355 -0.2941786110982293 -0.9299688714513017 -0.29185793904007995 -0.13017765455676894 0.0014266708054648427
1250750000.0 -0.050834984593166654 0.007417063853237268 -0.9382973028687582 -0.28365592177277155 -0.9328772913308098 -0.2814936842378375 -0.13032913040355396 0.0027337500298810088
1255749000.0 -0.05136599454390626 0.007449206336326505 -0.9411133804497847 -0.2731105569579523 -0.9356739213070429 -0.2711070467718378 -0.13044884172504825 0.004045555689181893
1260748000.0 -0.051898277568132194 0.007494072725447792 -0.9438123654882069 -0.2625437927549681 -0.938358823980968 -0.2606991118129997 -0.13053660184551868 0.005361242554475501
1265747000.0 -0.05243149204006865 0.007551678130563218 -0.9463943284068865 -0.25195689474636523 -0.9409320683820214 -0.25027095384486714 -0.13059224715939707 0.006679958430908973
1270746000.0 -0.052965295954210914 0.007622027724798191 -0.9488593525984234 -0.24135111785625243 -0.9433937295265449 -0.23982363678335553 -0.1306156373736854 0.008000844795274891
1275745000.0 -0.05349934722643641 0.007705116724501701 -0.9512075339850613 -0.23072770622594893 -0.9457438879840027 -0.2293582141117308 -0.13060665573284166 0.00932303744155972
1280744000.0 -0.054033303996111115 0.007800930378640164 -0.9534389805771539 -0.22008789310512467 -0.9479826294514642 -0.21887572903051697 -0.130565209225909 0.010645667133977145
1285743000.0 -0.05456682492889031 0.007909443967567958 -0.9555538120307138 -0.20943290075847962 -0.9501100443368332 -0.20837721462201642 -0.13049122877565375 0.011967860267022285
1290742000.0 -0.05509956951992382 0.008030622811201486 -0.9575521592045794 -0.19876394038798692 -0.9521262273512852 -0.19786369402910556 -0.1303846694094937 0.013288739532070621
1295741000.0 -0.0556311983971648 0.008164422286624382 -0.9594341637177216 -0.1880822120707068 -0.9540312771113721 -0.18733618064796714 -0.13024551041200466 0.014607424590050001
1300740000.0 -0.05616137362448745 0.00831078785513533 -0.9611999775072279 -0.17738890471215815 -0.9558252957512395 -0.17679567833439255 -0.13007375545880406 0.015923032749698075
1305739000.0 -0.056689759004314416 0.008469655098739358 -0.9628497623874903 -0.1666851960152264 -0.9575083885453761 -0.1662431816232872 -0.12986943273162627 0.017234679650916636
1310738000.0 -0.05721602037945619 0.008640949766077821 -0.9643836896111286 -0.15597225246455032 -0.9590806635423313 -0.15567967596099072 -0.12963259501440522 0.0185414799527284
1315737000.0 -0.05773982593386401 0.008824587827784357 -0.9658019394321842 -0.1452512293263354 -0.9605422312097966 -0.14510613795001828 -0.12936331977020177 0.019842548025332866
1320736000.0 -0.0582608464920006 0.009020475541234314 -0.9671047006721019 -0.1345232706634974 -0.9618932040914459 -0.13452353560581098 -0.12906170919881613 0.021136998645757493
1325735000.0 -0.058778755816529867 0.00922850952466227 -0.9682921702890347 -0.12378950936604842 -0.9631336964759182 -0.1239328286250768 -0.1287278902749405 0.022423947696587957
1330734000.0 -0.059293230904032185 0.009448576840595121 -0.969364552950995 -0.11305106719659373 -0.9642638240783121 -0.11333496866528985 -0.12836201476671907 0.023702512867263464
1335733000.0 -0.05980395227844989 0.009680555088553434 -0.970322060613361 -0.10230905485081318 -0.9652837037345384 -0.10273089963490516 -0.12796425923459145 0.02497181435741041
1340732000.0 -0.06031060428196957 0.009924312506955683 -0.9711649121012704 -0.0915645720327659 -0.9661934531088784 -0.09212155799383856 -0.1275348250103115 0.026230975581687188
1345731000.0 -0.0608128753630539 0.010179708084152023 -0.971893332697396 -0.08081870754484669 -0.9669931904150699 -0.08150787306374206 -0.12707393815603912 0.027479123875606457
1350730000.0 -0.061310458361332046 0.010446591678511098 -0.9725075537356231 -0.07007253939220792 -0.9676830341512334 -0.07089076734761396 -0.12658184940342507 0.028715391201795365
1355729000.0 -0.061803050789061675 0.010724804147466668 -0.9730078122011167 -0.05932713490143493 -0.9682631028489312 -0.060271156858248034 -0.12605883407260776 0.02993891485615038
1360728000.0 -0.06229035510888542 0.011014177485424848 -0.9733943503372795 -0.04858355085325127 -0.968733514836653 -0.04964995145504127 -0.1255051919710688 0.031148838173337474
1365727000.0 -0.0627720790075941 0.011314534970425784 -0.9736674152600864 -0.03784283362901682 -0.9690943880179744 -0.039028055188656666 -0.12492124727229424 0.03234431123108567
1370726000.0 -0.06324793566562775 0.011625691319442402 -0.9738272585802672 -0.027106019370753114 -0.9693458396646625 -0.028406366653031315 -0.12430734837420977 0.033524491552713406
1375725000.0 -0.06371764402203513 0.011947452852192866 -0.9738741360338199 -0.01637413415442522 -0.9694879862249447 -0.017785779344220508 -0.12366386773736845 0.034688544807329705
1380724000.0 -0.06418092903462795 0.012279617663328515 -0.973808307121305 -0.005648194176192738 -0.9695209431471727 -0.007167182025550807 -0.12299120170288477 0.035835645507141405
1385723000.0 -0.06463752193506102 0.012621975802862513 -0.9736300347563762 0.005070794048687987 -0.9694448247190801 0.0034485409014515757 -0.12228977029012097 0.0369649777012954
1390722000.0 -0.06508716047858065 0.012974309464682697 -0.9733395849239997 0.01578183347461844 -0.9692597439228202 0.01406050902088026 -0.12156001697415005 0.03807573566568735
1395721000.0 -0.06552958918818265 0.0133363931829944 -0.9729372263487768 0.02648393630242541 -0.9689658123059587 0.024667845521576547 -0.1208024084430296 0.03916712458815335
1400720000.0 -0.06596455959293063 0.013707994036525943 -0.9724232301738074 0.03717612374447179 -0.9685631398685698 0.03526967681209276 -0.12001743433494111 0.040238361248470314
1405719000.0 -0.06639183046018815 0.014088871860322347 -0.9717978696504931 0.047857425778505575 -0.968051834966578 0.04586513213207075 -0.11920560695525825 0.04128867469257727
1410718000.0 -0.06681116802152334 0.014478779464949095 -0.9710614198396856 0.05852688089059941 -0.967432004231462 0.05645334316056064 -0.11836746097363329 0.042317306900437654
1415717000.0 -0.06722234619205127 0.014877462862912487 -0.9702141573245595 0.06918353580760722 -0.9667037525064257 0.06703344362187852 -0.11750355310119304 0.0433235134469499
1420716000.0 -0.06762514678298336 0.015284661502105484 -0.969256359935587 0.07982644521951897 -0.9658671827991167 0.0776045688895384 -0.11661446174796809 0.04430656415531945
1425715000.0 -0.06801935970716101 0.01570010850607299 -0.9681883064879728 0.09045467149215997 -0.9649223962509658 0.08816585558885003 -0.11570078666068226 0.04526574374230355
1430714000.0 -0.06840478317735539 0.016123530920887894 -0.9670102765318919 0.10106728437065225 -0.9638694921231928 0.09871644119874143 -0.114763148541053 0.0462003524547327
1435713000.0 -0.06878122389712156 0.016554649968422857 -0.9657225501158655 0.11166336067409938 -0.962708567799511 0.10925546365339356 -0.11380218864477142 0.047109706696720384
1440712000.0 -0.0691484972440029 0.01699318130579031 -0.9643254075635904 0.12224198398194229 -0.9614397188055425 0.11978206094425187 -0.11281856836134513 0.04799313964696727
1445711000.0 -0.06950642744488474 0.017438835290728146 -0.9628191292645227 0.13280224431246712 -0.9600630388449424 0.13029537072300548 -0.1118129687750046 0.04885000186556712
1450710000.0 -0.06985484774331055 0.017891317252690508 -0.9612039954785043 0.14334323779394006 -0.9585786198522037 0.140794529906105 -0.1107860902068989 0.049679661889726966
1455709000.0 -0.07019360055857073 0.018350327769404075 -0.9594802861546998 0.15386406632886324 -0.9569865520621039 0.15127867428140496 -0.10973865173881495 0.0504815068178066
1460708000.0 -0.07052253763638824 0.01881556294864225 -0.9576482807651031 0.16436383725185783 -0.9552869240957302 0.16174693811750784 -0.10867139071868016 0.051254942881095174
1465707000.0 -0.07084152019103483 0.019286714714969618 -0.9557082581528438 0.17484166298167372 -0.9534798230630064 0.17219845377638843 -0.10758506224812778 0.05199939600273693
1470706000.0 -0.07115041903870627 0.01976347110118934 -0.9536604963955241 0.18529666066786465 -0.951565334681617 0.18263235132988137 -0.10648043865241863 0.05271431234322562
1475705000.0 -0.07144911472201217 0.020245516544241143 -0.9515052726837843 0.19572795183263636 -0.9495435434122197 0.19304775818060188 -0.10535830893303584 0.05339915883188859
1480704000.0 -0.07173749762542131 0.020732532185274263 -0.9492428632152827 0.20613466200842337 -0.9474145326097989 0.20344379868787926 -0.10421947820328936 0.05405342368379096
1485703000.0 -0.07201546808153445 0.021224196173628793 -0.9468735431042622 0.21651592037172096 -0.9451783846910102 0.21381959379926593 -0.10306476710728445 0.054676616901485814
1490702000.0 -0.07228293646804165 0.021720183974444265 -0.9443975863068544 0.22687085937373996 -0.9428351813173461 0.2241742606882052 -0.10189501122263052 0.055268270761054596
1495701000.0 -0.07253982329524843 0.022220168679617604 -0.941815265562252 0.23719861436842024 -0.9403850035939156 0.23450691239839633 -0.10071106044728462 0.05582794028187868
1500700000.0 -0.07278605928405323 0.022723821321823625 -0.9391268523498604 0.2474983232383878 -0.937827932283633 0.24481665749544176 -0.09951377837094673 0.056355203679595484
1505699000.0 -0.07302158543426455 0.023230811191310152 -0.9363326168625364 0.2577691260193987 -0.9351640480365868 0.2551025997263037 -0.09830404163144298 0.0568496628016996
1510698000.0 -0.07324635308316674 0.02374080615517635 -0.9334328279959752 0.2680101645238651 -0.9323934316343276 0.26536383768714167 -0.09708273925655053 0.05731094354525749
1515697000.0 -0.07346032395423625 0.024253472978835178 -0.930427753354313 0.2782205819640146 -0.9295161642488128 0.2755994645000436 -0.09585077199174313 0.057738696256217005
1520696000.0 -0.07366347019593383 0.02476847764936594 -0.9273176592719826 0.28839952257528173 -0.9265323277157115 0.28580856749920747 -0.09460905161435468 0.058132596109799345
1525695000.0 -0.07385577441049217 0.0252854857004513 -0.9241028108518382 0.2985461312404964 -0.9234420048217753 0.29599022792707885 -0.09335850023467303 0.05849234347147677
1530694000.0 -0.07403722967264367 0.025804162538597027 -0.9207834720195486 0.3086595531154648 -0.9202452796059273 0.3061435206409713 -0.09210004958450714 0.05881766423804941
1535693000.0 -0.07420783953822327 0.0263241737703254 -0.917359905594245 0.3187389332565145 -0.9169422376737457 0.31626751383066487 -0.09083464029378015 0.05910831015834805
1540692000.0 -0.07436761804260847 0.026845185530036498 -0.9138323733753745 0.3287834162505998 -0.9135329665249673 0.3263612687474894 -0.08956322115572343 0.05936405913310616
1545691000.0 -0.07451658968895516 0.027366864808222105 -0.9102011362457092 0.3387921458485442 -0.9100175558936275 0.3364238394453635 -0.08828674838127458 0.05958471549355522
1550690000.0 -0.07465478942619952 0.027888879779724523 -0.9064664542904204 0.34876426460200904 -0.906396098100451 0.346454272534278 -0.08700618484328317 0.05977011025831763
1555689000.0 -0.07478226261681188 0.0284109001317216 -0.90262858693213 0.3586989135047652 -0.9026686884170604 0.3564516069466655 -0.08572249931116822 0.0599201013681859
1560688000.0 -0.07489906499428862 0.028932597391125876 -0.8986877930818133 0.3685952316388555 -0.8988354254415853 0.3664148737171208 -0.08443666567667323 0.06003457389839582
1565687000.0 -0.07500526261038366 0.029453645251080143 -0.8946443313054123 0.3784523558262274 -0.8948964114852052 0.37634309577589636 -0.08314966217139091 0.06011344024802008
1570686000.0 -0.07510093177208756 0.029973719896231925 -0.8904984600060091 0.3882694202863989 -0.8908517529691806 0.38623528775659316 -0.08186247057674256 0.06015664030612518
1575685000.0 -0.07518615896837266 0.030492500326470422 -0.8862504376213658 0.3980455563007476 -0.8867015608318622 0.39609045581845564 -0.08057607542712193 0.06016414159436196
1580684000.0 -0.07526104078673304 0.031009668678805617 -0.8819005228366529 0.40777989188397334 -0.8824459509452138 0.40590759748365346 -0.07929146320691954 0.06013593938567295
1585683000.0 -0.0753256838195555 0.03152491054707623 -0.8774489748121236 0.41747155146330983 -0.8780850445402992 0.4156857014899302 -0.07800962154216251 0.060072056798829036
1590682000.0 -0.07538020456036962 0.032037915299163146 -0.8728960534255144 0.42711965556602927 -0.8736189686412403 0.4254237476589668 -0.07673153838752846 0.05997254486852661
1595681000.0 -0.07542472929002983 0.032548376391395004 -0.8682420195289073 0.4367233205158045 -0.8690478565070754 0.43512070678080517 -0.07545820120949376 0.05983748259080288
1600680000.0 -0.07545939395290228 0.03305599167982932 -0.8634871352197754 0.44628165813845194 -0.8643718480809827 0.44477554051464296 -0.07419059616639656 0.05966697694355009
1605679000.0 -0.0754843440231238 0.03356046372809137 -0.8586316641259123 0.45579377547761285 -0.8595910904462875 0.4543872013063129 -0.07292970728621033 0.05946116288193578
1610678000.0 -0.07549973436102587 0.034061500111459544 -0.8536758717039435 0.46525877452087794 -0.8547057382886858 0.4639546323227132 -0.07167651564282661 0.05922020330856274
1615677000.0 -0.07550572905981251 0.03455881371688279 -0.8486200255510653 0.47467575193689077 -0.8497159543640725 0.4734767674034671 -0.07043199853166922 0.05894428901822809
1620676000.0 -0.07550250128260146 0.03505212303862106 -0.843464395729676 0.4840437988239231 -0.844621909971397 0.48295253103003544 -0.0691971286454605 0.05863363861717176
1625675000.0 -0.07549023308993874 0.035541152469198166 -0.8382092551045145 0.4933620004704305 -0.8394237854299061 0.4923808383125207 -0.0679728732509748 0.05828849841672732
1630674000.0 -0.07546911525791405 0.03602563258536343 -0.8328548796919248 0.5026294361280655 -0.8341217705601727 0.5017605949943427 -0.0667601933676243 0.057909142301324976
1635673000.0 -0.0754393470870085 0.03650530042875626 -0.8274015490208363 0.5118451787976339 -0.8287160651682645 0.5110906974749807 -0.06556004294872482 0.05749587157081832
1640672000.0 -0.07540113620181742 0.03697989978097473 -0.8218495465050314 0.5210082950284405 -0.8232068795324239 0.5203700328509194 -0.06437336806629622 0.05704901475714304
1645671000.0 -0.07535469834180385 0.0374491814327503 -0.816199159826259 0.5301178447314899 -0.8175944348916008 0.5295974789749459 -0.06320110610026015 0.05656892741534144
1650670000.0 -0.07530025714324114 0.03791290344693568 -0.8104506813277442 0.539172881006967 -0.8118789639351988 0.5387719045338893 -0.06204418493289772 0.05605599188902367
1655669000.0 -0.07523804391252131 0.03837083141501464 -0.8046044084175964 0.548172449986424 -0.806060711293364 0.5478921691449082 -0.060903522149429484 0.055510617050359326
1660668000.0 -0.07516829739100343 0.03882273870684928 -0.798660643981645 0.557115590690072 -0.800139934027162 0.556957123470363 -0.05978002424558996 0.05493323801473561
1665667000.0 -0.07509126351160222 0.03926840671338317 -0.7926196968051865 0.5660013348995844 -0.7941169021179747 0.5659656093513312 -0.05867458584306074 0.05432431583024183
1670666000.0 -0.0750071951473084 0.0397076250820236 -0.7864818820031128 0.5748287070467659 -0.7879918989554436 0.5749164599597665 -0.05758808891362366 0.05368433714217667
1675665000.0 -0.07491635185185455 0.040140191944431074 -0.7802475214578947 0.5835967241184622 -0.7817652218232978 0.5838084999692885 -0.05652140201290226 0.05301381383280649
1680664000.0 -0.0748189995927453 0.04056591413645173 -0.7739169442648595 0.5923043955780417 -0.7754371823823852 0.5926405457445777 -0.05547537952454379 0.05231328263663546
1685663000.0 -0.07471541047687676 0.040984607409929326 -0.7674904871842 0.6009507233037737 -0.7690081071502424 0.6014114055492941 -0.0544508609156944 0.05158330473148106
1690662000.0 -0.07460586246898517 0.04139609663614513 -0.7609684950991336 0.609534701544412 -0.7624783379765327 0.6101198797724587 -0.05344867000461431 0.050824465305681445
1695661000.0 -0.0744906391031695 0.04180021600063553 -0.7543513214796211 0.6180553168922583 -0.7558482325136797 0.6187647611731589 -0.05246961424126728 0.050037373101793445
1700660000.0 -0.07437002918773818 0.04219680918914692 -0.7476393288510379 0.6265115482739874 -0.7491181646820396 0.6273448351434657 -0.05151448400170761 0.04922265993717379
1705659000.0 -0.07424432650364986 0.042585729564492365 -0.7408328892671849 0.6349023669594596 -0.7422885251289436 0.6358588799893815 -0.050584051897086445 0.04838098020186634
1710658000.0 -0.07411382949681623 0.04296684033408282 -0.7339323847870093 0.6432267365887684 -0.7353597216809629 0.6443056672296504 -0.049679072098069973 0.04751301033425116
1715657000.0 -0.07397884096454393 0.04334001470791436 -0.7269382079544003 0.6514836132177022 -0.728332179788742 0.6526839619122013 -0.048800279675466095 0.04661944827494597
1720656000.0 -0.07383966773640965 0.04370513604679624 -0.7198507622804112 0.6596719453818292 -0.7212063429637594 0.6609925229480078 -0.04794838995782563 0.04570101289947404
1725655000.0 -0.07369662034985772 0.0440620980006186 -0.7126704627272555 0.6677906741793357 -0.7139826732063892 0.6692301034620899 -0.047124097906772675 0.04475844343025247
1730654000.0 -0.07355001272082974 0.044410804636464594 -0.7053977361934065 0.6758387333727909 -0.7066616514246273 0.677395451161388 -0.04632807751080535 0.04379249882847859
1735653000.0 -0.07340016180973404 0.04475117055637742 -0.6980330219991425 0.6838150495099179 -0.699243777842881 0.6854873087191885 -0.045560981198279324 0.0428039571665245
1740652000.0 -0.07324738728307295 0.04508312100460789 -0.6905767723718399 0.6917185420634918 -0.6917295724002085 0.6935044141757869 -0.04482343927027163 0.041793614981477024
1745651000.0 -0.07309201117105692 0.04540659196417294 -0.6830294529303543 0.6995481235904112 -0.6841195751374282 0.7014455013550183 -0.04411605935399759 0.04076228661049191
1750650000.0 -0.072934357521534 0.04572153024256683 -0.6753915431677839 0.7073026999100076 -0.6764143465725124 0.7093093002963041 -0.04343942587742885 0.0397108035086521
1755649000.0 -0.0727747520505792 0.04602789354647635 -0.6676635369319243 0.7149811703015907 -0.668614468063706 0.7170945377017912 -0.0427940995657406 0.03864001355005314
1760648000.0 -0.07261352179008067 0.04632565054536302 -0.6598459429027309 0.7225824277212516 -0.6607205421598201 0.7247999373981913 -0.04218061696018242 0.03755078031285936
1765647000.0 -0.07245099473268526 0.04661478092378338 -0.6519392850660761 0.730105359037864 -0.6527331929371722 0.7324242208128654 -0.041599489959944044 0.03644398234910054
1770646000.0 -0.07228749947444975 0.046895275422332204 -0.64394410318311 0.7375488452882605 -0.6446530663226505 0.7399661074637056 -0.041051205387563364 0.03532051244000235
1775645000.0 -0.07212336485556894 0.047167135867101126 -0.6358609532545195 0.7449117619514837 -0.6364808304024074 0.747424315462334 -0.04053622457838225 0.034181276837663976
1780644000.0 -0.07195891959954284 0.0474303751875607 -0.6276904079789909 0.7521929792420106 -0.6282171757157079 0.7547975620301209 -0.04005498299453896 0.03302719449392084
1785643000.0 -0.07179449195115864 0.047685017422782174 -0.6194330572051671 0.7593913624218337 -0.6198628155334563 0.7620845640265167 -0.03960788986394123 0.03185919627724508
1790642000.0 -0.07163040931366224 0.04793109771592855 -0.6110895083764157 0.7665057721312207 -0.6114184861209808 0.7692840384891589 -0.03919532784464844 0.03067822417856019
1795641000.0 -0.07146699788550206 0.048168662296956426 -0.6026603869676997 0.7735350647379986 -0.6028849469846344 0.7763947031852191 -0.03881765271503539 0.029485230506856384
1800640000.0 -0.07130458229702634 0.04839776845348384 -0.5941463369138745 0.7804780927051284 -0.59426298110183 0.7834152771734142 -0.038475193090098773 0.028281177075517965
1805639000.0 -0.07114348524752967 0.04861848448978792 -0.5855480210287091 0.7873337049763618 -0.585553395134113 0.7903444813761266 -0.038168250164218306 0.02706703438027692
1810638000.0 -0.07098402714302474 0.04883088967391502 -0.5768661214139751 0.7941007473797012 -0.5767570196229395 0.7971810391610245 -0.03789709748065129 0.02584378076973069
1815637000.0 -0.07082652573514953 0.049035074172892795 -0.5681013398579072 0.8007780630484013 -0.567874709167799 0.8039236769315992 -0.03766198072800876 0.024612401609363493
1820636000.0 -0.07067129576159162 0.04923113897605152 -0.5592543982223902 0.8073644928591817 -0.5589073425863967 0.8105711247259931 -0.037463117563921795 0.02337388844002793
1825635000.0 -0.0705186485884331 0.04941919580647207 -0.550326038818204 0.813858875887338 -0.5498558230565881 0.8171221168235062 -0.03730069746606261 0.022129238131845287
1830634000.0 -0.0703688918548093 0.04959936702059437 -0.5413170247676902 0.8202600498783718 -0.540721078239822 0.8235753923581448 -0.037174881610662014 0.020879452034494646
1835633000.0 -0.07022232912028516 0.049771785496030216 -0.5322281403541997 0.8265668517357788 -0.5315040603858376 0.8299296959385738 -0.03708580277861488 0.01962553512486019
1840632000.0 -0.07007925951533839 0.04993659450764173 -0.5230601913577023 0.8327781180245659 -0.5222057464184124 0.8361837782738177 -0.037033565289232406 0.01836849515301576
1845631000.0 -0.06993997739535789 0.05009394759195819 -0.5138140053759445 0.8388926854900826 -0.5128271380019658 0.8423363968040757 -0.037018244961660146 0.017109341787520087
1850630000.0 -0.06980477199854652 0.05024400840001685 -0.5044904321305667 0.8449093915917015 -0.5033692615888625 0.848386316335965 -0.037039889103949744 0.015849085761001008
1855629000.0 -0.06967392710812614 0.050386950538733134 -0.49509034375758726 0.8508270750508746 -0.4938331684472637 0.854332309681555 -0.037098516529719586 0.014588738017004974
1860628000.0 -0.06954772071924077 0.050522957400909646 -0.4856146350817036 0.8566445764130638 -0.4842199346694294 0.8601731583005088 -0.03719411760231692 0.013329308859080763
1865627000.0 -0.06942642471094518 0.050652221984018295 -0.47606422387384 0.8623607386230177 -0.4745306611603625 0.8659076529446723 -0.03732665430635302 0.012071807103064703
1870626000.0 -0.06931030452367076 0.050774946697895416 -0.4664400510914371 0.8679744076128582 -0.4647664736067556 0.8715345943044382 -0.0374960603464301 0.010817239233528862
1875625000.0 -0.06919961884255259 0.050891343161508375 -0.45674308110094586 0.8734844329024035 -0.4549285224261791 0.8770527936562202 -0.03770224127286951 0.00956660856534099
1880624000.0 -0.06909461928699684 0.05100163198896455 -0.4469743018820477 0.8788896682111474 -0.4450179826965107 0.8824610735103662 -0.03794507463418814 0.008320914411279185
1885623000.0 -0.06899555010686663 0.05110604256494792 -0.4371347252131241 0.8841889720812794 -0.4350360540656156 0.8877582682588394 -0.03822441015604916 0.00708115125663177
1890622000.0 -0.06890264788565927 0.05120481280978032 -0.4272253868375192 0.8893812085111359 -0.42498396064130833 0.8929432248220259 -0.03854006994637062 0.005848307941697445
1895621000.0 -0.06881614125103606 0.05129818893432297 -0.4172473466101757 0.8944652475984219 -0.4148629508616635 0.8980148032939791 -0.03889184872624574 0.004623366853091378
1900620000.0 -0.06873625059306793 0.05138642518494103 -0.4072016886242184 0.8994399661925552 -0.4046742973457479 0.902971877585478 -0.03927951408628912 0.003407303124739441
1905619000.0 -0.0686631877905503 0.051469783578771716 -0.39708952131712805 0.9043042485554512 -0.394419296724898 0.9078133360642331 -0.03970280676799036 0.0022010838494357426
1910618000.0 -0.0685971559457281 0.05154853362955002 -0.38691197755611495 0.9090569870300528 -0.38409926945465395 0.9125380821916099 -0.04016144096963344 0.001005667301806774
1915617000.0 -0.06853834912777484 0.051622952064254955 -0.3766702147023858 0.9136970827158999 -0.3737155596075213 0.9171450351552319 -0.04065510467629214 -0.00017799782648075842
1920616000.0 -0.06848695212535177 0.051693322530856296 -0.36636541465397165 0.9182234461510199 -0.3632695346467201 0.9216331304968503 -0.041183460013394554 -0.0013489731784644215
1925615000.0 -0.06844314020856784 0.05175993529745291 -0.355998783866852 0.9226349979993969 -0.35276258518113185 0.9260013207348521 -0.04174614362331609 -0.0025063314697950662
1930614000.0 -0.06840707890065617 0.05182308694310407 -0.34557155335410167 0.9269306697432788 -0.3421961247016483 0.930248575980821 -0.04234276706442759 -0.0036491572120464
1935613000.0 -0.06837892375965983 0.05188308004067182 -0.3350849786628481 0.9311094043795604 -0.3315715892991765 0.9343738845495453 -0.04297291723200455 -0.004776547420690752
1940612000.0 -0.06835882017043157 0.051940222831997396 -0.32454033982882136 0.9351701571194804 -0.3208904373645413 0.9383762535619055 -0.04363615680037465 -0.005887612307027612
1945611000.0 -0.0683469031472146 0.051994828895753305 -0.31393894130833677 0.9391118960908477 -0.3101541492705768 0.9422547095400671 -0.044332024685650444 -0.006981475953381409
1950610000.0 -0.06834329714708333 0.052047216808317004 -0.3032821118875566 0.9429336030420239 -0.29936422703669235 0.9460082989944277 -0.04506003652838017 -0.00805727697091179
1955609000.0 -0.06834811589449674 0.05209770979802878 -0.29257120456892094 0.9466342740468585 -0.28852219397623474 0.9496360890017843 -0.04581968519541944 -0.009114169139409352
1960608000.0 -0.06836146221721169 0.052146635393200066 -0.2818075964346557 0.9502129202097938 -0.2776295943269669 0.9531371677741886 -0.04661044130030945 -0.010151322028480497
1965607000.0 -0.06838342789378914 0.05219432506425441 -0.2709926884873098 0.9536685683703268 -0.26668799286502454 0.9565106452179887 -0.04743175374142413 -0.011167921599550079
1970606000.0 -0.06841409351291108 0.05224111386038887 -0.260127905467281 0.9570002618060409 -0.25569897450269435 0.9597556534825614 -0.048283050257135654 -0.01216317078815037
1975605000.0 -0.06845352834471803 0.052287340041152076 -0.24921469564734847 0.9602070609333795 -0.24466414387040833 0.9628713474982551 -0.04916373799722584 -0.013136290065989745
1980604000.0 -0.06850179022435489 0.052333344703345976 -0.23825453060423377 0.9632880440053819 -0.2335851248833325 0.9658569055030889 -0.05007320410975661 -0.01408651798232745
1985603000.0 -0.06855892544790808 0.05237947140366597 -0.2272489049672566 0.9662423078055555 -0.22246356029295614 0.9687115295577593 -0.051010816342603016 -0.015013111684217439
1990602000.0 -0.06862496868089456 0.05242606577749492 -0.21619933614418343 0.969068968337092 -0.21130111122410605 0.9714344460485328 -0.05197592365883165 -0.015915347415214286
1995601000.0 -0.06869994287945431 0.05247347515428725 -0.20510736402438026 0.9717671615066233 -0.20009945669779614 0.9740249061776095 -0.052967856865104676 -0.016792520992165157
2000600000.0 -0.06878385922437565 0.05252204816996787 -0.19397455065944044 0.9743360438017222 -0.18886029314036948 0.976482186440578 -0.05398592925227434 -0.01764394825975336
2005599000.0 -0.06887671706807728 0.0525721343767915 -0.18280247992144838 0.9767747929613567 -0.17758533387936068 0.9788055890905756 -0.055029437247329276 -0.018468965522483973
2010598000.0 -0.0689785038946471 0.05262408385110229 -0.17159275713911606 0.9790826086385147 -0.16627630862655407 0.9809944425888107 -0.05609766107583918 -0.019266929953841657
2015597000.0 -0.06908919529302224 0.052678246799448526 -0.1603470087120095 0.9812587130542213 -0.15493496294868248 0.9830481020411062 -0.05718986543405241 -0.020037219982381616
2020596000.0 -0.06920875494338584 0.0527349731634956 -0.14906688170315818 0.9833023516421806 -0.1435630577262565 0.9849659496201456 -0.058305300169783573 -0.020779235654551767
2025595000.0 -0.06933713461683118 0.05279461222420247 -0.13775404341033037 0.985212793683291 -0.1321623686009843 0.9867473949731262 -0.05944320097123661 -0.02149239897407578
2030594000.0 -0.06947427418833235 0.05285751220571385 -0.12641018091631148 0.9869893329292801 -0.12073468541228134 0.9883918756145331 -0.060602790062899065 -0.02217615421775824
2035593000.0 -0.06962010166304351 0.05292401987943135 -0.11503700061853676 0.9886312882147309 -0.10928181162334615 0.9898988573037829 -0.06178327690765385 -0.022829968227613535
2040592000.0 -0.06977453321593002 0.052994480168722186 -0.10363622773846372 0.9901380040567783 -0.09780556373730065 0.9912678344074726 -0.06298385891424571 -0.023453330679244506
2045591000.0 -0.0699374732447215 0.05306923575472975 -0.092209605811085 0.9915088512417731 -0.08630777070388393 0.9924983302460346 -0.06420372214925306 -0.02404575432643739
2050590000.0 -0.07010881443615409 0.05314862668374963 -0.08075889615503735 0.9927432273982192 -0.07479027331721133 0.9935898974245647 -0.06544204205271252 -0.024606775221967195
2055589000.0 -0.07028843784546245 0.05323298997662702 -0.0692858773237336 0.9938405575553182 -0.06325492360507293 0.9945421181476489 -0.06669798415655376 -0.025135952914639825
2060588000.0 -0.07047621298905385 0.05332265924064153 -0.057792344538042266 0.994800294686463 -0.0517035842103048 0.9953546045180123 -0.06797070480500987 -0.025632870622633773
2065587000.0 -0.07067199795028631 0.053417964284333375 -0.046280109100987635 0.9956219202370419 -0.040138127764701444 0.9960269988188328 -0.06925935187617342 -0.026097135383227
2070586000.0 -0.0708756394982579 0.0535192307357302 -0.034750997795030616 0.996304944635947 -0.02856043625599618 0.996558973779583 -0.0705630655038797 -0.026528378179031822
2075585000.0 -0.07108697321949206 0.053626779664421476 -0.02320685226245928 0.9968489077901772 -0.01697240038838924 0.9969502328252835 -0.0718809787991119 -0.026926254040886513
2080584000.0 -0.07130582366239 0.053740927207934296 -0.011649528369490332 0.9972533795619782 -0.005375918937138081 0.9972005103090521 -0.07321221857013016 -0.027290442127584077
2085583000.0 -0.07153200449430837 0.053861984202850814 -8.089555465534236e-05 0.9975179602279507 0.006227101902304032 0.9973095717278744 -0.07455590604054066 -0.02762064578264019
2090582000.0 -0.07176531867109714 0.053990255821107225 0.011497163837904887 0.9976422809196138 0.017834749170109288 0.9972772139215126 -0.0759111575645414 -0.02791659256834203
2095581000.0 -0.07200555861892326 0.05412604121190552 0.02308275523959632 0.9976260040449056 0.029445103802352348 0.9971032652544976 -0.07727708533858033 -0.02817803427733212
2100580000.0 -0.07225250642818724 0.05426963314966725 0.03467397255234708 0.9974688236901523 0.041056241295276116 0.9967875857811627 -0.07865279810870003 -0.028404746922015774
2105579000.0 -0.07250593405932282 0.05442131768844422 0.046268898856708256 0.9971704660020395 0.052666232373044956 0.9963300673936936 -0.08003740187283395 -0.02859653070210682
2110578000.0 -0.07276560356025814 0.054581373823202294 0.0578656071324257 0.9967306895491659 0.06427314365851938 0.9957306339531784 -0.08143000057736038 -0.02875320995063936
2115577000.0 -0.0730312672953022 0.05475007315837839 0.06946216099076312 0.9961492856627681 0.07587503834657508 0.9949892414036512 -0.0828296968072227 -0.028874633058813888
2120576000.0 -0.07330266818519823 0.05492767958410757 0.08105661541788342 0.9954260787562449 0.08746997687949917 0.9941058778691586 -0.08423559246894802 -0.028960672380047413
2125575000.0 -0.07357953995808446 0.05511444896050222 0.09264701752855124 0.9945609266231282 0.0990560176239932 0.993080563733855 -0.0856467894659201 -0.02901122411363719
2130574000.0 -0.07386160741107761 0.05531062881036469 0.10423140732944187 0.9935537207131805 0.1106312175493471 0.9919133517051821 -0.08706239036527666 -0.029026208168456698
2135573000.0 -0.07414858668218614 0.055516458020690926 0.11580781849129518 0.9924043863863256 0.12219363290630435 0.9906043268601732 -0.0884814990558233 -0.02900556800712197
2140572000.0 -0.07444018553224907 0.055732166553328084 0.12737427912918503 0.99111288314414 0.13374131990620675 0.9891536066749428 -0.08990322139638357 -0.028949270471091252
2145571000.0 -0.07473610363657715 0.05595797516511973 0.13892881259012033 0.9896792048386757 0.14527233539994933 0.9875613410374421 -0.09132666585401432 -0.02885730558717138
2150570000.0 -0.07503603288596955 0.05619409513787924 0.15046943824724496 0.9881033798583987 0.15678473755634478 0.9858277122435548 -0.09275094413155267 -0.028729686355923646
2155569000.0 -0.07533965769676115 0.056440728018502306 0.16199417229983584 0.9863854712910652 0.1682765865394492 0.9839529349766286 -0.09417517178396954 -0.0285664485224721
2160568000.0 -0.07564665532954827 0.056698065369530995 0.17350102857835448 0.9845255770633803 0.17974594518445253 0.9819372562705434 -0.09559846882303745 -0.028367650330244954
2165567000.0 -0.07595669621622508 0.056966288530459375 0.18498801935375261 0.9825238300573192 0.19119087967170795 0.9797809554564368 -0.09701996030983964 -0.02813337225817014
2170566000.0 -0.07626944429496349 0.057245568390061896 0.19645315615027736 0.9803803982030108 0.20260946019851386 0.9774843440931864 -0.09843877693466975 -0.027863716741880255
2175565000.0 -0.07658455735274587 0.05753606517001141 0.20789445056097602 0.9780954845481231 0.2139997616482378 0.9750477658818011 -0.0998540555838971 -0.02755880787948077
2180564000.0 -0.07690168737506023 0.0578379282200375 0.2193099150651481 0.975669327303706 0.22535986425641147 0.9724715965638396 -0.10126493989339769 -0.02721879112244614
2185563000.0 -0.07722048090236021 0.05815129582486599 0.23069756384694834 0.9731021998664842 0.23668785427340333 0.9697562438040035 -0.10267058078816889 -0.026843832952223944
2190562000.0 -0.07754057939287631 0.05847629502315938 0.24205541361438512 0.970394410817617 0.24798182462330373 0.9669021470570662 -0.10407013700777641 -0.026434120543124197
2195561000.0 -0.07786161959136505 0.0588130414386706 0.2533814844179426 0.9675463038979696 0.2592398755586594 0.9639097774192734 -0.10546277561730551 -0.02598986141209197
2200560000.0 -0.07818323390337181 0.05916163912379966 0.2646738004680569 0.9645582579599677 0.27046011531068714 0.9607796374643989 -0.10684767250350381 -0.025511283055952818
2205559000.0 -0.07850505077458118 0.05952218041573725 0.2759303909507075 0.9614306868961351 0.2816406607346347 0.9575122610646134 -0.10822401285584089 -0.02499863257673629
2210558000.0 -0.07882669507481649 0.05989474580534989 0.287149290840356 0.9581640395444406 0.29277963794992495 0.9541082131963413 -0.1095909916322183 -0.024452176295686242
2215557000.0 -0.07914778848625308 0.06027940381896351 0.2983285417095133 0.9547587995705983 0.3038751829747669 0.9505680897312907 -0.11094781400910442 -0.02387219935655611
2220556000.0 -0.07946794989539833 0.06067621091317037 0.30946619253417756 0.9512154853275097 0.3149254423548804 0.9468925172128352 -0.11229369581587301 -0.02325900531881414
2225555000.0 -0.07978679578839566 0.06108521138277512 0.3205603004944568 0.9475346496920383 0.3259285737860394 0.9430821526179409 -0.11362786395316297 -0.022612915741362885
2230554000.0 -0.08010394064919607 0.06150643728198708 0.331608931769631 0.9437168798793455 0.33688274673008756 0.9391376831048299 -0.11494955679509616 -0.02193426975738411
2235553000.0 -0.08041899736015029 0.061939908358932795 0.34261016232698493 0.9397627972350374 0.3477861430241445 0.9350598257465829 -0.11625802457520291 -0.021223423640934484
2240552000.0 -0.08073157760456098 0.0623856320035673 0.353562078703703 0.9356730570053953 0.35863695748267005 0.9308493272508763 -0.11755252975594514 -0.020480750365886407
2245551000.0 -0.08104129227074428 0.062843603209028 0.36446277878117916 0.931448348085979 0.3694333984921189 0.926506963666063 -0.11883234738173194 -0.01970663915784063
2250550000.0 -0.08134775185713727 0.06331380454647316 0.3753103725510575 0.9270893927489254 0.38017368859786727 0.9220335400738096 -0.12009676541535828 -0.018901495039608977
2255549000.0 -0.08165056687800125 0.06379620615342198 0.3861029828723858 0.9225969463492715 0.39085606508314213 0.917429890268497 -0.12134508505780857 -0.018065738370872993
2260548000.0 -0.08194934826925562 0.06429076573560517 0.39683874621923526 0.9179717970106638 0.4014787805396656 0.9126968764236038 -0.12257662105139354 -0.017199804382621975
2265547000.0 -0.08224370779399352 0.06479742858231113 0.40751581341819454 0.9132147652908249 0.4120401034297442 0.9078353887452932 -0.12379070196621172 -0.016304142706961646
2270546000.0 -0.08253325844721904 0.06531612759520253 0.41813235037512225 0.9083267038271768 0.42253831863952374 0.9028463451134237 -0.12498667046993868 -0.015379216902887367
2275545000.0 -0.08281761485935665 0.0658467833305641 0.42868653879060586 0.9033084969630234 0.43297172802316086 0.8977306907102078 -0.12616388358097763 -0.014425503978604823
2280544000.0 -0.08309639369808094 0.06638930405491936 0.439176576863544 0.8981610603547324 0.44333865093763264 0.8924893976367557 -0.1273217129050167 -0.013443493910976082
2285543000.0 -0.08336921406802004 0.06694358581394967 0.4496006799823333 0.8928853405603469 0.4536374247679473 0.887123464517724 -0.12845954485506295 -0.012433689162657982
2290542000.0 -0.08363569790788741 0.06750951251462275 0.4599570814031188 0.8874823146100985 0.4638664054424875 0.8816339160943106 -0.12957678085503516 -0.011396604197504311
2295541000.0 -0.08389547038460478 0.06808695602043294 0.4702440329146215 0.8819529895592888 0.4740239679382626 0.8760218028058414 -0.13067283752702394 -0.010332764994775612
2300540000.0 -0.08414816028397888 0.0686757762596345 0.4804598054890485 0.8762984020240222 0.4841085067758028 0.8702882003601653 -0.1317471468623397 -0.009242708562709121
2305539000.0 -0.08439340039750283 0.069275821346337 0.49060268991862244 0.8705196177003015 0.4941184365034756 0.8644342092931331 -0.13279915637648487 -0.008126982451983358
2310538000.0 -0.08463082790485661 0.06988692771431883 0.5006709974372974 0.8646177308669801 0.5040521921709896 0.8584609545173774 -0.13382832924821295 -0.006986144269602161
2315537000.0 -0.08486008475168737 0.07050892026339818 0.5106630603272193 0.8585938638731121 0.5139082297918441 0.8523695848606674 -0.13483414444283826 -0.005820761193717516
2320536000.0 -0.08508081802225992 0.07114161251819115 0.520577232509541 0.8524491666102113 0.523685026794512 0.8461612725940734 -0.1358160968199934 -0.0046314094898931785
2325535000.0 -0.08529268030656417 0.07178480679906997 0.530411890119204 0.8461848159699771 0.5333810824621275 0.8398372129502094 -0.13677369722602814 -0.003418674029306371
2330534000.0 -0.08549533006149002 0.07243829440512292 0.5401654320633262 0.8398020152880202 0.5429949183604649 0.8333986236318024 -0.13770647257127713 -0.0021831478093700877
2335533000.0 -0.08568843196567076 0.07310185580890417 0.5498362805628435 0.8333019937741624 0.5525250787539842 0.8268467443108704 -0.13861396589241995 -0.0009254314772466963
2340532000.0 -0.0858716572676153 0.07377526086275181 0.5594228816770977 0.8266860059298523 0.5619701310097479 0.8201828361187503 -0.13949573640018534 0.0003538671432882065
2345531000.0 -0.086044684126752 0.0744582690164348 0.5689237058110536 0.8199553309532843 0.571328665988982 0.8134081811272688 -0.14035135951265568 0.0016541335211822858
2350530000.0 -0.08620719794701985 0.0751506295458838 0.5783372482048811 0.8131112721327788 0.5805992984261013 0.8065240818213179 -0.14118042687444377 0.0029747468832126566
2355529000.0 -0.08635889170264432 0.07585208179274643 0.5876620294056224 0.806155156229013 0.5897806672949731 0.799531860563118 -0.14198254636202423 0.004315080674438995
2360528000.0 -0.08649946625575597 0.07656235541449762 0.5968965957207186 0.7990883328466744 0.5988714361622447 0.792432859048449 -0.1427573420755179 0.0056745030135926
2365527000.0 -0.08662863066550681 0.07728117064482283 0.6060395196531632 0.7919121737961256 0.607870293527527 0.7852284377551433 -0.14350445431722897 0.007052377143015157
2370526000.0 -0.08674610248835579 0.07800823856398259 0.6150894003180942 0.7846280724456622 0.6167759531502534 0.7779199753841155 -0.14422353955726086 0.008448061872755125
2375525000.0 -0.08685160806920972 0.0787432613788601 0.6240448638406245 0.7772374430649581 0.6255871543630217 0.7705088682932486 -0.14491427038652666 0.009860912018465359
2380524000.0 -0.08694488282310224 0.07948593271237943 0.6329045637347714 0.7697417201602699 0.6343026623712485 0.7629965299244135 -0.14557633545749765 0.011290278832742065
2385523000.0 -0.08702567150711836 0.08023593790197271 0.6416671812633169 0.7621423578020089 0.6429212685389405 0.7553843902239434 -0.146209439413033 0.012735510429570102
2390522000.0 -0.08709372848227477 0.08099295430676934 0.650331425778497 0.7544408289452462 0.6514417906604302 0.747673895056867 -0.14681330280364188 0.014195952201548366
2395521000.0 -0.08714881796507826 0.08175665162317002 0.6588960350434004 0.7466386247437544 0.6598630732178958 0.7398665056152189 -0.14738766199354036 0.015670947229588308
2400520000.0 -0.08719071426850139 0.08252669220845707 0.6673597755339855 0.7387372538581525 0.6681839876244916 0.7319636978207411 -0.1479322690558736 0.017159836684785355
2405519000.0 -0.08721920203211277 0.08330273141209076 0.675721442721667 0.7307382417587491 0.6764034324529554 0.7239669617223145 -0.14844689165747404 0.018661960222190913
2410518000.0 -0.0872340764411303 0.08408441791432687 0.6839798613363888 0.7226431300236547 0.6845203336495113 0.7158778008884398 -0.1489313129335421 0.020176656366210088
2415517000.0 -0.08723514343415656 0.08487139407179017 0.6921338856101725 0.7144534756327366 0.6925336447329288 0.7076977317951114 -0.14938533135263565 0.021703262887383848
2420516000.0 -0.08722221989938542 0.08566329626962801 0.7001823995011117 0.7061708502579926 0.7004423469785991 0.6994282832094292 -0.1498087605723568 0.02324111717031192
2425515000.0 -0.08719513385906764 0.08645975527986038 0.7081243168978136 0.6977968395509022 0.7082454495874816 0.6910709955692868 -0.15020142928614305 0.024789556572503146
2430514000.0 -0.0871537246420452 0.08726039662554269 0.715958581804295 0.6893330424273296 0.715941989839788 0.6826274203595114 -0.15056318106155475 0.02634791877394185
2435513000.0 -0.08709784304416901 0.08806484095034617 0.7236841685053703 0.6807810703505142 0.7235310332332818 0.6740991194847872 -0.15089387417047048 0.027915542117184878
2440512000.0 -0.0870273514764326 0.08887270439315409 0.7313000817125678 0.6721425466127235 0.731011673606068 0.6654876646397572 -0.15119338141160238 0.029491765937809982
2445511000.0 -0.08694212410066418 0.08968359896727922 0.738805356690642 0.6634191056160949 0.738383033243763 0.6567946366766576 -0.1514615899257363 0.031075930885059874
2450510000.0 -0.08684204695263151 0.0904971329438856 0.7461990593647437 0.6546123921532132 0.7456442629709349 0.648021624970872 -0.1516984010041162 0.03266737923253441
2455509000.0 -0.08672701805243023 0.091312911239206 0.7534802864083477 0.6457240606879556 0.7527945422267175 0.6391702267847829 -0.1519037298903906 0.03426545517879981
2460508000.0 -0.08659694750203638 0.09213053580514112 0.7606481653120233 0.6367557746371312 0.7598330791245006 0.6302420466303238 -0.152077505576538 0.035869505137806165
2465507000.0 -0.0864517575699141 0.09294960602281756 0.76770185443318 0.6277092056534234 0.7667591104956264 0.6212386956306098 -0.1522196705931858 0.03747887801900669
2470506000.0 -0.08629138276259321 0.09376971909868409 0.7746405430268968 0.6185860329101703 0.7735719019169975 0.6121617908810707 -0.1523301807947508 0.03909292549709927
2475505000.0 -0.08611576988312962 0.09459047046272025 0.7814634512579846 0.6093879423884515 0.7802707477225478 0.6030129548104685 -0.15240900513981762 0.040711002271320434
2480504000.0 -0.08592487807638673 0.09541145416832843 0.7881698301944272 0.6001166261670196 0.7868549709985104 0.5937938145422471 -0.1524561254671686 0.042332466314231744
2485503000.0 -0.08571867886108292 0.09623226329348251 0.7947589617823657 0.5907737817155246 0.793323923562435 0.5845060012565961 -0.1524715362678963 0.04395667910996909
2490502000.0 -0.08549715614856818 0.09705249034269735 0.8012301588027964 0.5813611111915461 0.7996769859259203 0.5751511495536823 -0.1524552444540031 0.04558300588191763
2495501000.0 -0.0852603062482979 0.09787172764938998 0.8075827648101677 0.5718803207418858 0.8059135672410298 0.5657308968184668 -0.1524072691239126 0.047210815809813164
2500500000.0 -0.08500813785999668 0.09868956777819712 0.8138161540530685 0.562333119808589 0.8120331052303827 0.5562468825875378 -0.15232764132530097 0.04883948223626698
2505499000.0 -0.08474067205251085 0.0995056039268123 0.8199297313772145 0.5527212204401631 0.8180350661009004 0.546700747918417 -0.1522164038156634 0.05046838286273387
2510498000.0 -0.08445794222936008 0.10031943032691434 0.8259229321109419 0.5430463366084206 0.823918944441228 0.5370941347617555 -0.15207361082101784 0.05209689993496049
2515497000.0 -0.08415999408102064 0.1011306426437423 0.8317952219334364 0.5333101835314167 0.8296842631028386 0.527428685336902 -0.1518993277931581 0.05372442041795355
2520496000.0 -0.08384688552397856 0.10193883837389416 0.8375460967259263 0.5235144770028799 0.835330573064859 0.517706041511263 -0.1516936311658479 0.05535033616053605
2525495000.0 -0.08351868662660462 0.10274361724090643 0.8431750824060796 0.5136609327285925 0.8408574532826454 0.5079278441839398 -0.15145660811035946 0.0569740440495625
2530494000.0 -0.08317547952192536 0.1035445815881872 0.8486817347458606 0.5037512656701071 0.8462645105201848 0.49809573267407364 -0.1511883562907432 0.05859494615388048
2535493000.0 -0.08281735830736481 0.10434133676887386 0.8540656391730903 0.4937871893962348 0.8515513791663649 0.4882113441143969 -0.1508889836192165 0.060212449858146486
2540492000.0 -0.08244442893155662 0.10513349153217769 0.8593264105569937 0.4837704154426757 0.8567177210352186 0.4782763128504126 -0.150558608012052 0.061825967986600956
2545491000.0 -0.08205680906832999 0.10592065840580228 0.8644636929779893 0.4737026526802109 0.8617632251502174 0.4682922698457159 -0.15019735714634036 0.06343491891694301
2550490000.0 -0.08165462797799775 0.10670245407399974 0.869477159482018 0.46358560669181226 0.8666876075127481 0.4582608420938859 -0.14980536821799262 0.06503872668443554
2555489000.0 -0.08123802635607695 0.10747849975085122 0.8743665118196781 0.45342097915906693 0.8714906108548668 0.4481836520374503 -0.14938278770134825 0.0666368210764006
2560488000.0 -0.08080715616959064 0.1082484215483529 0.8791314801704849 0.4432104672582629 0.8761720043764983 0.43806231699437176 -0.14892977111073835 0.06822863771726968
2565487000.0 -0.08036218048111679 0.10901185083889176 0.8837718228525383 0.4329557630665129 0.8807315834672161 0.42789844859254733 -0.14844648276435418 0.06981361814436539
2570486000.0 -0.07990327326075464 0.10976842461170581 0.8882873260179117 0.422658552978245 0.8851691694127805 0.41769365221277277 -0.14793309555075457 0.07139120987460858
2575485000.0 -0.07943061918620314 0.11051778582291968 0.8926778033340832 0.4123205171324245 0.8894846090866192 0.40744952644066723 -0.14738979069834965 0.07296086646234833
2580484000.0 -0.07894441343114705 0.1112595837387606 0.8969430956517187 0.4019433288508188 0.893677774626449 0.3971676625280053 -0.1468167575481724 0.07452204754853245
2585483000.0 -0.07844486144217067 0.11199347427155695 0.9010830706591427 0.3915286540876465 0.8977485630962558 0.38684964386394133 -0.1462141933302621 0.07607421890143898
2590482000.0 -0.07793217870442556 0.11271912030813154 0.9050976225238253 0.3810781508909159 0.9016968961338703 0.3764970454565839 -0.14558230294394775 0.07761685244920592
2595481000.0 -0.07740659049629227 0.11343619203021087 0.9089866715212315 0.37059346887577344 0.9055227195843805 0.36611143342538977 -0.1449212987423404 0.07914942630440513
2600480000.0 -0.07686833163329154 0.11414436722646858 0.9127501636513641 0.36007624871015664 0.9092260031196523 0.3556943645048373 -0.1442314003213032 0.08067142478091308
2605479000.0 -0.07631764620151198 0.11484333159584084 0.9163880702433661 0.3495281216130363 0.9128067398442407 0.3452473855598233 -0.14351283431317938 0.08218233840334806
2610478000.0 -0.07575478728083304 0.11553277904174851 0.9199003875485336 0.3389507088655542 0.9162649458879847 0.33477203311325676 -0.14276583418553654 0.08368166390934433
2615477000.0 -0.07518001665823268 0.11621241195687364 0.9232871363220949 0.32834562133530837 0.9196006599856087 0.32426983288627326 -0.1419906400451778 0.08516890424495026
2620476000.0 -0.07459360453148779 0.11688194149814884 0.9265483613941331 0.3177144590140735 0.9228139430436532 0.31374229935152576 -0.14118749844765835 0.08664356855344324
2625475000.0 -0.07399582920358398 0.11754108785161585 0.9296841312300229 0.3070588105692052 0.9259048776950936 0.30319093529997526 -0.14035666221253454 0.08810517215785715
2630474000.0 -0.07338697676815704 0.11818958048683524 0.9326945374807533 0.2963802529089851 0.9288735678420003 0.29261723142161444 -0.139498390244559 0.08955323653753908
2635473000.0 -0.07276734078631195 0.118827158400524 0.9355796945235357 0.2856803507621492 0.9317201381866387 0.28202266590053404 -0.1386129473610247 0.0909872892990463
2640472000.0 -0.07213722195517049 0.11945357034911377 0.9383397389930658 0.2749606562718375 0.9344447337513809 0.27140870402475126 -0.13770060412544974 0.09240686414170593
2645471000.0 -0.07149692776850812 0.12006857506993718 0.9409748293038543 0.26422270860418484 0.9370475193878766 0.26077679781118823 -0.13676163668777544 0.09381150081817387
2650470000.0 -0.07084677216985463 0.12067194149075054 0.9434851451640144 0.2534680335717836 0.9395286792758821 0.2501283856462033 -0.1357963266312435 0.09520074509032117
2655469000.0 -0.07018707519844598 0.12126344892732253 0.9458708870809158 0.24269814327221093 0.9418884164122172 0.23946489194203666 -0.13480496082610452 0.09657414868079635
2660468000.0 -0.06951816262841931 0.12184288726882413 0.948132275859114 0.231914535741845 0.9441269520902993 0.22878772680956103 -0.13378783129028837 0.097931269220608
2665467000.0 -0.06884036560166107 0.12241005715076828 0.9502695520909723 0.22111869462513487 0.946244525370737 0.21809828574766424 -0.1327452350571687 0.09927167019308031
2670466000.0 -0.06815402025471762 0.12296477011526342 0.952282975640397 0.21031208885953626 0.9482413925434783 0.2073979493496348 -0.1316774740505173 0.10059492087453926
2675465000.0 -0.06745946734020182 0.12350684875835317 0.9541728251201119 0.19949617237625883 0.9501178265820172 0.19668808302685106 -0.130584854966755 0.10190059627208922
2680464000.0 -0.0667570518431254 0.12403612686423174 0.955939397362896 0.18867238381701995 0.951874116590179 0.18597003675011708 -0.12946768916457493 0.10318827705884383
2685463000.0 -0.06604712259259528 0.12455244952613698 0.9575830068872383 0.1778421462669306 0.9535105672420386 0.17524514480891484 -0.12832629256199654 0.10445754950697816
2690462000.0 -0.06533003186934173 0.12505567325373795 0.9591039853578301 0.16700686700368725 0.9550274982154935 0.16451472558888575 -0.12716098554091457 0.10570800541897307
2695461000.0 -0.06460613500952023 0.1255456660668474 0.9605026810413491 0.15616793726318023 0.9564252436200852 0.15378008136778232 -0.12597209285916744 0.10693924205742067
2700460000.0 -0.06387579000526566 0.12602230757530392 0.9617794582579905 0.14532673202167018 0.9577041514196211 0.14304249813016484 -0.12475994357015201 0.10815086207376336
2705459000.0 -0.06313935710247363 0.1264854890448895 0.9629346968291919 0.13448460979462515 0.958864582850213 0.13230324540105712 -0.12352487094998928 0.10934247343634347
2710458000.0 -0.06239719839628168 0.12693511344915379 0.9639687915220149 0.12364291245234059 0.9599069118343024 0.12156357609878682 -0.12226721243223297 0.11051368935813086
2715457000.0 -0.0616496774247528 0.1273710955070427 0.9648821514906457 0.11280296505242962 0.9608315243913155 0.110824726407206 -0.12098730955009478 0.11166412822450766
2720456000.0 -0.06089715876124 0.1277933617062422 0.965675199715488 0.10196607568927044 0.9616388180455516 0.10008791566746589 -0.11968550788614853 0.11279341352148145
2725455000.0 -0.0601400076059397 0.1282018503121581 0.9663483724403118 0.09113353536048342 0.9623292012319513 0.08935434628950753 -0.11836215702946148 0.11390117376469333
2730454000.0 -0.059378589377136345 0.1285965113624819 0.9669021186079418 0.08030661785049405 0.9629030927003774 0.0786252036833964 -0.1170176105400757 0.1149870424295969
2735453000.0 -0.05861326930264409 0.12897730664730095 0.9673368992949603 0.06948657963124634 0.9633609209190686 0.06790165621063338 -0.11565222592076531 0.1160506578831707
2740452000.0 -0.0578444120119548 0.12934420967473167 0.9676531871459116 0.05867465978008705 0.9637031234779281 0.05718485515551814 -0.11426636459595815 0.1170916633175285
2745451000.0 -0.057072381129611195 0.12969720562207465 0.967851465807495 0.04787207991485603 0.9639301464923097 0.046475934716648896 -0.1128603918977185 0.1181097066857892
2750450000.0 -0.0562975388703177 0.1300362912725026 0.96793222936323 0.037080044146201044 0.964042444007978 0.03577601201860882 -0.11143467705864962 0.11910444064055858
2755449000.0 -0.05552024563630613 0.1303614749373205 0.9678959817690964 0.026299739047105034 0.9640404774079261 0.025086187143859955 -0.10998959321158326 0.12007552247537828
2760448000.0 -0.054740859617479924 0.13067277636384472 0.9677432362906394 0.015532333639632936 0.9639247148217411 0.014407543184863206 -0.1085255173958859 0.12102261406948539
2765447000.0 -0.05395973639484823 0.13097022662897487 0.9674745149420357 0.0047789793988448495 0.9636956305381952 0.003741146316379167 -0.10704283057021355 0.121945381836223
2770446000.0 -0.05317722854777396 0.13125386801854655 0.9670903479276252 -0.005959189726129533 0.9633537044217738 -0.006911954112059175 -0.10554191763152503 0.12284349667543504
2775445000.0 -0.052393685265553484 0.13152375389257492 0.9665912730864099 -0.0166810572739355 0.9628994213338246 -0.017550725463601202 -0.10402316744015506 0.12371663393017154
2780444000.0 -0.05160945196383872 0.1317799485365163 0.96597783534002 -0.027385524215793686 0.9623332705590364 -0.028174151681517826 -0.10248697285071708 0.12456447334802548
2785443000.0 -0.050824869906419747 0.13202252699869413 0.9652505861446524 -0.038071508883379714 0.9616557452379406 -0.03878123313678807 -0.10093373074862576 0.125386699047407
2790442000.0 -0.05004027583287504 0.13225157491405798 0.96441008294749 -0.04873794687982419 0.9608673418061429 -0.04937098645592287 -0.09936384209197642 0.1261829994890636
2795441000.0 -0.04925600159259561 0.13246718831445844 0.9634568886481027 -0.059383790973986404 0.9599685594409803 -0.05994244432923294 -0.09777771195852873 0.12695306745313464
2800440000.0 -0.04847237378568294 0.13266947342564173 0.9623915710653399 -0.07000801097809066 0.9589598995163043 -0.07049465529970156 -0.09617574959753561 0.12769660002201952
2805439000.0 -0.04768971341121782 0.1328585464511941 0.961214702410211 -0.08060959360890288 0.9578418650660862 -0.081026683532715 -0.09455836848611317 0.12841329856934613
2810438000.0 -0.04690833552338884 0.13303453334367002 0.9599268587652707 -0.0911875423325564 0.9566149602575339 -0.0915376085668525 -0.0929259863898748 0.12910286875528332
2815437000.0 -0.04612854889596001 0.1331975695631708 0.9585286195709988 -0.10174087719322705 0.9552796898744114 -0.10202652504603249 -0.09127902542751039 0.12976502052845976
2820436000.0 -0.045350655695554305 0.13334779982365694 0.9570205671196826 -0.1122686346258364 0.9538365588112453 -0.11249254243330363 -0.08961791213899602 0.1303994681347268
2825435000.0 -0.04457495116421827 0.1334853778272853 0.9554032860572944 -0.12276986725297524 0.9522860715790851 -0.12293478470659343 -0.08794307755709847 0.13100593013298723
2830434000.0 -0.04380172331172099 0.1336104659870964 0.9536773628938652 -0.13324364366626368 0.9506287318234993 -0.13335239003675842 -0.08625495728184046 0.13158412941830394
2835433000.0 -0.04303125261803813 0.13372323513838044 0.9518433855228445 -0.14368904819238695 0.9488650418554567 -0.14374451044831607 -0.0845539915575668 0.1321337932524929
2840432000.0 -0.042263811746450906 0.1338238642390845 0.949901942749925 -0.1541051806440507 0.9469955021957476 -0.15411031146324786 -0.08284062535225352 0.13265465330238327
2845431000.0 -0.041499665267685504 0.1339125400596178 0.9478536238318338 -0.164491156056117 0.9450206111335943 -0.1644489717282937 -0.08111530843868645 0.1331464456859135
2850430000.0 -0.04073906939550547 0.13398945686245875 0.9456990180255468 -0.17484610440720144 0.9429408643000593 -0.17475968262618474 -0.07937849547712938 0.13360891102622924
2855429000.0 -0.03998227173415275 0.13405481607195627 0.9434387141484193 -0.18516917032701455 0.9407567542569001 -0.18504164787127408 -0.07763064609909517 0.13404179451391593
2860428000.0 -0.03922951103801949 0.134108825934749 0.9410733001496797 -0.19545951278979665 0.9384687701014379 -0.19529408309009252 -0.07587222499181275 0.13444484597749715
2865427000.0 -0.038481016983924865 0.1341517011712449 0.9386033626937623 -0.20571630479412167 0.9360773970880657 -0.2055162153873048 -0.07410370198299975 0.13481781996231126
2870426000.0 -0.03773700995634596 0.13418366261860387 0.9360294867559207 -0.21593873302945035 0.9335831162669475 -0.21570728289763985 -0.07232555212551732 0.13516047581785443
2875425000.0 -0.03699770084594457 0.13420493686569693 0.9333522552305713 -0.22612599752977008 0.9309864041404731 -0.22586653432434256 -0.07053825578149618 0.13547257779367328
2880424000.0 -0.03626329086170718 0.13421575588051998 0.9305722485527961 -0.236277311314716 0.928287732338015 -0.23599322846475668 -0.06874229870550495 0.1357538951438654
2885423000.0 -0.035533971357007824 0.13421635663055395 0.9276900443334444 -0.24639190001854605 0.925487567309513 -0.24608663372362666 -0.0669381721263373 0.13600420224022963
2890422000.0 -0.03480992366987448 0.13420698069658726 0.92470621700823 -0.256469001507374 0.9225863700383773 -0.256146027614764 -0.06512637282698215 0.136223278694096
2895421000.0 -0.03409131897773047 0.1341878738805085 0.9216213375012513 -0.26650786548509536 0.9195845957742133 -0.2661706962517284 -0.06330740322234105 0.13641090948683673
2900420000.0 -0.03337831816686097 0.13415928580760952 0.9184359729033116 -0.2765077530884338 0.91648269378582 -0.2761599338282094 -0.0614817714342517 0.13656688510905335
2905419000.0 -0.03267107171682719 0.13412146952393836 0.9151506861654353 -0.286467936471552 0.9132811071349128 -0.286113042088786 -0.059649991363374566 0.13669100170840826
2910418000.0 -0.031969719600048886 0.1340746810892516 0.911766035807945 -0.29638769838070245 0.9099802724709862 -0.29602932979079305 -0.05781258275750457 0.13678306124605386
2915417000.0 -0.03127439119673057 0.13401917916613332 0.9082825756454641 -0.3062663317193822 0.9065806198477174 -0.30590811215801966 -0.055970071275852726 0.13684287166159115
2920416000.0 -0.0305852052253138 0.13395522460584489 0.9047008545281768 -0.3161031391045085 0.9030825725612763 -0.31574871032700574 -0.054122988548861745 0.1368702470464761
2925415000.0 -0.02990226968858751 0.1338830800314888 0.9010214160997011 -0.32589743241408703 0.8994865470109062 -0.3255504507866837 -0.05227187223310239 0.1368650078257659
2930414000.0 -0.029225681835594187 0.13380300941906856 0.8972447985718581 -0.33564853232692404 0.8957929525820723 -0.3353126648121717 -0.05041726606081923 0.13682698094808193
2935413000.0 -0.028555528139425967 0.1337152776770363 0.8933715345166782 -0.34535576785488936 0.8920021915525046 -0.3450346878935077 -0.04855971988366404 0.13675600008364805
2940412000.0 -0.027891884290994505 0.13362015022492574 0.8894021506758949 -0.3550184758682957 0.8881146590213749 -0.35471585916015186 -0.04669978971020078 0.13665190583024117
2945411000.0 -0.02723481520883278 0.13351789257167027 0.8853371677882169 -0.3646360006149261 0.8841307428618655 -0.3643555208020719 -0.044838037736728786 0.1365145459268692
2950410000.0 -0.026584375064962175 0.13340876989420922 0.8811771004346319 -0.3742076932332909 0.8800508236973407 -0.37395301748826704 -0.042975032370999956 0.13634377547498114
2955409000.0 -0.025940607326836417 0.13329304661699146 0.8769224569019698 -0.3837329112607016 0.8758752749012949 -0.38350769578359345 -0.04111134824840506 0.1361394571669819
2960408000.0 -0.02530354481535522 0.13317098599298294 0.8725737390649423 -0.39321101813672066 0.8716044626212365 -0.39301890356473573 -0.039247566240205055 0.13590146152181645
2965407000.0 -0.024673209778904106 0.13304284968678975 0.8681314422868787 -0.40264138270261157 0.8672387458266289 -0.4024859894362207 -0.03738427345339401 0.13562966712736502
2970406000.0 -0.024049613983374993 0.13290889736049843 0.8635960553393168 -0.4120233786973763 0.8627784763809805 -0.4119083021473464 -0.0355220632217929 0.13532396088936285
2975405000.0 -0.023432758818073187 0.13276938626285445 0.858968060340627 -0.42135638425101923 0.8582239991381377 -0.4212851900109421 -0.0336615350879638 0.13498423828655975
2980404000.0 -0.022822635417412987 0.1326245708223687 0.854247932713811 -0.43063978137563286 0.8535756520628126 -0.4306160003248276 -0.03180329477556902 0.13461040363179175
2985403000.0 -0.02221922479827535 0.13247470224496535 0.8494361411635964 -0.43987295545495425 0.8488337663753387 -0.4399000787969079 -0.029947954151788463 0.13420237033863533
2990402000.0 -0.021622498012871433 0.13232002811676796 0.8445331476729369 -0.4490552947330226 0.8439986667206157 -0.449136768974795 -0.028096131179429662 0.13376006119329345
2995401000.0 -0.021032416316935285 0.13216079201261346 0.8395394075189971 -0.45818618980258863 0.8390706713611741 -0.4583254116808894 -0.026248449858365948 0.13328340863133656
3000400000.0 -0.020448931353059484 0.13199723311088535 0.834455369308692 -0.4672650330939114 0.8340500923942422 -0.46746534445381765 -0.024405540155972166 0.13277235501891274
3005399000.0 -0.019871985348940874 0.13182958581524562 0.8292814750338176 -0.4762912183646099 0.8289372359926938 -0.4765559009971633 -0.022568037926213185 0.13222685293802314
3010398000.0 -0.01930151133030006 0.1316580793838407 0.8240181601458033 -0.48526414019121294 0.8237324026696867 -0.4855964106363902 -0.020736584817074424 0.1316468654754323
3015397000.0 -0.018737433348208613 0.13148293756654122 0.8186658536500736 -0.49418319346308476 0.8184358875667908 -0.494586197784897 -0.01891182816602717 0.13103236651478287
3020396000.0 -0.018179666720537252 0.13130437825077976 0.8132249782200118 -0.5030477728793741 0.813047980765356 -0.5035245814200915 -0.01709442088324522 0.1303833410314491
3025395000.0 -0.01762811828721712 0.1311226131165223 0.8076959503304754 -0.5118572724496567 0.8075689676208497 -0.5124108745704112 -0.015285021322298972 0.12969978538966678
3030394000.0 -0.017082686678982977 0.13093784730091082 0.8020791804108007 -0.5206110849989471 0.8019991291198416 -0.5212443838141878 -0.013484293138072537 0.12898170764144043
3035393000.0 -0.01654326259925085 0.13075027907310435 0.7963750730172074 -0.5293086016777317 0.796338742259291 -0.530024408791254 -0.011692905131666655 0.1282291278267433
3040392000.0 -0.016009729118757917 0.13056009951981717 0.7905840270245059 -0.5379492114776994 0.7905880804477559 -0.538750241728176 -0.009911531082070997 0.12744207827447687
3045391000.0 -0.015481961982577931 0.13036749224205993 0.7847064358369567 -0.5465323007538226 0.7847474139280952 -0.547421166977991 -0.008140849564406393 0.12662060390367424
3050390000.0 -0.014959829929096575 0.1301726330635557 0.7787426876181528 -0.5550572527534835 0.7788170102212258 -0.5560364605753394 -0.006381543754554014 0.1257647625243984
3055389000.0 -0.014443195020530231 0.12997568975130683 0.7726931655397298 -0.5635234471532614 0.7727971345904263 -0.5645953898078069 -0.0046343012200202195 0.12487462513778444
3060388000.0 -0.013931912984529074 0.129776821748753 0.7665582480487236 -0.571930259604078 0.7666880505256872 -0.573097212804359 -0.00289981369688881 0.12395027623466198
3065387000.0 -0.013425833566415506 0.1295761799219616 0.760338309153346 -0.580277061285326 0.7604900202475339 -0.5815411781416622 -0.0011787768527584449 0.12299181409217935
3070386000.0 -0.012924800891566774 0.12937390631926524 0.7540337187269404 -0.5885632184686609 0.7542033052297372 -0.5899265244691374 0.0005281099644422209 0.12199935106784723
3075385000.0 -0.012428653837454609 0.12917013394474167 0.7476448428298583 -0.5967880920920635 0.7478281667402882 -0.5982524801534983 0.0022201439918209036 0.12097301389040511
3080384000.0 -0.01193722641482763 0.1289649865459223 0.7411720440489696 -0.6049510373448419 0.7413648663999838 -0.6065182629435848 0.0038966193311222 0.11991294394690989
3085383000.0 -0.011450348157509052 0.12875857841608862 0.7346156818545013 -0.6130514032641802 0.7348136667579271 -0.614723079656216 0.005556827242582443 0.1188192975654393
3090382000.0 -0.010967844520276151 0.12855101421149634 0.7279761129738761 -0.6210885323438783 0.7281748318832237 -0.6228661258838172 0.007200056453040826 0.11769224629278952
3095381000.0 -0.010489537284263453 0.12834238878385282 0.7212536917822057 -0.6290617601558794 0.7214486279721238 -0.6309465857245087 0.008825593478272265 0.11653197716655093
3100380000.0 -0.010015244969329592 0.1281327870283478 0.7144487707090621 -0.636970414985201 0.7146353239698212 -0.6389636315353552 0.010432722959498502 0.11533869298093262
3105379000.0 -0.009544783252807401 0.12792228374752 0.7075617006611548 -0.644813817478858 0.70773519220611 -0.6469164237094136 0.012020728013991499 0.11411261254571457
3110378000.0 -0.009077965394054336 0.12771094353121626 0.7005928314604705 -0.6525912803093765 0.7007485090440332 -0.6548041104772354 0.013588890599671489 0.11285397093768529
3115377000.0 -0.008614602664203776 0.1274988206528845 0.6935425122974839 -0.6603021078534582 0.6936755555406819 -0.6626258277333973 0.01513649189356263 0.11156301974394474
3120376000.0 -0.008154504780512599 0.1272859589824135 0.686411092198954 -0.6679455958863674 0.6865166181192199 -0.6703806988886443 0.0166628126839518 0.11024002729643298
3125375000.0 -0.007697480344688606 0.12707239191571618 0.6791989205098613 -0.6755210312925862 0.6792719892512344 -0.6780678347481819 0.01816713377606649 0.1088852788970549
3130374000.0 -0.007243337284581267 0.1268581423212247 0.6719063473889735 -0.683027691793286 0.6719419681484444 -0.6856863334166314 0.01964873641105601 0.10749907703277589
3135373000.0 -0.006791883298600655 0.12664322250344717 0.6645337243175514 -0.6904648456911203 0.6645268614628085 -0.6932352802301022 0.021106902698042523 0.10608174158005503
3140372000.0 -0.006342926302236649 0.1264276341837122 0.6570814046206577 -0.6978317516328704 0.657026983994029 -0.7007137477158385 0.022540916058966874 0.10463360999800496
3145371000.0 -0.0058962748760348635 0.12621136849820128 0.649549744000516 -0.7051276583904267 0.6494426594034323 -0.7081207955798385 0.023950061685945864 0.10315503750965094
3150370000.0 -0.005451738714391483 0.12599440601334927 0.6419391010813728 -0.7123518046605827 0.6417742209331948 -0.7154554707227962 0.02533362701080729 0.10164639727069064
3155369000.0 -0.005009129074513159 0.12577671675866922 0.6342498379652709 -0.7195034188841231 0.6340220121298572 -0.7227168072847182 0.02669090218646604 0.1001080805251468
3160368000.0 -0.004568259224904235 0.12555826027703093 0.6264823207981365 -0.7265817190846244 0.6261863875710428 -0.7299038267184749 0.02802118057975214 0.09854049674732378
3165367000.0 -0.004128944892719721 0.12533898569240465 0.6186369203455709 -0.7335859127274359 0.6182677135942988 -0.7370155378925606 0.029323759275298924 0.09694407376948468
3170366000.0 -0.0036910047093401924 0.1251188317950532 0.6107140125777104 -0.740515196599219 0.6102663690269517 -0.7440509372232502 0.030597939590054912 0.09531925789468475
3175365000.0 -0.003254260653519208 0.12489772714413393 0.6027139792625151 -0.7473687567084619 0.6021827459158566 -0.7510090088363203 0.03184302759796171 0.09366651399419383
3180364000.0 -0.002818538491448184 0.1246755901876501 0.5946372085668182 -0.7541457682073317 0.5940172502559131 -0.7578887247584619 0.03305833466431626 0.09198632558897783
3185363000.0 -0.0023836682130928613 0.12445232939966228 0.5864840956644674 -0.7608453953352401 0.5857703027162031 -0.7646890451384653 0.03424317798931331 0.09027919491469769
3190362000.0 -0.0019494844641603194 0.12422784343465677 0.5782550433508584 -0.7674667913844364 0.5774423393626057 -0.7714089184982005 0.03539688116022295 0.08854564296972846
3195361000.0 -0.001515826973047347 0.1240020212989345 0.5699504626631643 -0.7740090986879662 0.5690338123757275 -0.7780472820133919 0.03651877471165309 0.08678620954569619
3200360000.0 -0.0010825409721391826 0.12377474253886533 0.5615707735055554 -0.7804714486302742 0.56054519076301 -0.7846030618241279 0.037608196693310454 0.08500145324005774
3205359000.0 -0.0006494776128225777 0.1235458774458346 0.5531164052786367 -0.7868529616807476 0.5519769610638044 -0.7910751733750095 0.03866449324464662 0.08319195145027677
3210358000.0 -0.0002164943735838488 0.12331528727767527 0.5445877975124266 -0.7931527474504355 0.5433296280463155 -0.7974625217847856 0.03968701917577338 0.08135830034915381
3215357000.0 0.00021654453942138356 0.12308282449636629 0.5359854005020598 -0.7993699047721903 0.5346037153951868 -0.8037640022452793 0.04067513855397269 0.07950111484090415
3220356000.0 0.0006497677999462267 0.12284833302175412 0.5273096759455006 -0.8055035218044287 0.5257997663886184 -0.8099785004493726 0.041628225295147994 0.07762102849760077
3225355000.0 0.001083296577983795 0.12261164850102192 0.5185610975824494 -0.8115526761587186 0.5169183445638212 -0.816104893047761 0.04254566375951066 0.07571869347560255
3230354000.0 0.0015172441654425102 0.12237259859362813 0.5097401518336947 -0.8175164350513341 0.5079600343696895 -0.8221420481341363 0.04342684935078444 0.0737947804116553
3235353000.0 0.0019517156117604402 0.12213100327139598 0.5008473384400961 -0.8233938554789344 0.49892544180553644 -0.8280888257584276 0.0442711891182036 0.07184997829833278
3240352000.0 0.0023868073700272934 0.12188667513343023 0.49188317110039237 -0.8291839844184854 0.489815195044759 -0.8339440784676706 0.04507810236054506 0.06988499433854853
3245351000.0 0.0028226069541883838 0.12163941973549867 0.48284817810704395 -0.8348858590514947 0.48062994504233 -0.8397066518740256 0.04584702123143003 0.06790055377887612
3250350000.0 0.003259192607880723 0.12138903593351795 0.4737429029792684 -0.8404985070126626 0.4713703661249933 -0.8453753852494339 0.04657739134511069 0.06589739972145912
3255349000.0 0.003696632985445447 0.12113531624074635 0.46456790509246737 -0.846020946662953 0.4620371565631087 -0.8509491121463376 0.04726867238194406 0.06387629291431512
3260348000.0 0.004134986845643425 0.12087804719826599 0.4553237603031896 -0.851452187387139 0.45263103912303426 -0.8564266610438647 0.04792033869274015 0.0618380115198602
3265347000.0 0.00457430275859933 0.12061700975833635 0.44601106156881287 -0.8567912299157815 0.4431527615990411 -0.861806856018809 0.048531879901163415 0.05978335086154379
3270346000.0 0.005014618826466081 0.12035197968015551 0.4366304195610958 -0.862037066671629 0.4336030973237109 -0.8670885174407172 0.0491028015033521 0.057713123148470526
3275345000.0 0.005455962418302999 0.12008272793757291 0.4271824632727553 -0.8671886821403634 0.42398284565583017 -0.8722704626903314 0.04963262546391116 0.05562815717796393
3280344000.0 0.0058983499196445695 0.11980902113825909 0.4176678406162195 -0.8722450532656152 0.4142928324447955 -0.8773515069006124 0.050120890807433066 0.05352929801602632
3285343000.0 0.006341786497204897 0.1195306219538339 0.4080872190137032 -0.8772051498681197 0.40453391047059545 -0.8823304637195065 0.05056715420468074 0.05141740665570654
3290342000.0 0.0067862658791734655 0.1192472895604308 0.3984412859777555 -0.8820679350888823 0.3947069598584465 -0.887206146093591 0.05097099055257723 0.049293359653408156
3295341000.0 0.007231770151514822 0.1189587800891602 0.38873074968143684 -0.8868323658561726 0.38481288846721956 -0.8919773670716952 0.05133199354713429 0.047158048743214026
3300340000.0 0.007678269570681311 0.118664847085923 0.3789563395172299 -0.8914973933761619 0.3748526322507668 -0.8966429406275506 0.05164977624844995 0.0450123804293351
3305339000.0 0.008125722393131276 0.11836524197999831 0.36911880664388735 -0.8960619636469578 0.36482715559139106 -0.9012016825004849 0.05192397163690945 0.04285727555682521
3310338000.0 0.008574074722016883 0.11805971456083038 0.3592189245203091 -0.9005250179958015 0.35473745160463127 -0.9056524110531505 0.05215423315972154 0.0406936688607469
3315337000.0 0.009023260371395472 0.11774801346241269 0.34925748942564167 -0.90488549363912 0.34458454241467257 -0.9099939481452195 0.052340235266926334 0.03852250849400458
3320336000.0 0.009473200748296074 0.11742988665465744 0.33923532096471015 -0.9091423242651484 0.3343694793996415 -0.9142251200219937 0.05248167393601434 0.03634475553409136
3325335000.0 0.009923804752951668 0.11710508194113024 0.3291532625579747 -0.9132944406387432 0.3240933434061718 -0.9183447582167723 0.052578267184303216 0.03416138346905207
3330334000.0 0.010374968697484298 0.11677334746250506 0.3190121819151519 -0.9173407712280485 0.31375724493261115 -0.9223517004658711 0.05262975556822571 0.03197337766297175
3335333000.0 0.01082657624332284 0.11643443220509768 0.30881297149165826 -0.9212802428525884 0.30336232428029636 -0.9262447916351053 0.05263590266869246 0.029781734801364812
3340332000.0 0.011278498357586984 0.116088086513813 0.2985565489270749 -0.9251117813523695 0.2929097516724052 -0.9300228846565439 0.05259649556170302 0.027587462316854692
3345331000.0 0.011730593288680464 0.11573406260883133 0.28824385746478853 -0.9288343122775137 0.2824007273398895 -0.9336848414743096 0.0525113452733902 0.025391577795577568
3350330000.0 0.01218270656128419 0.11537211510535886 0.27787586635200684 -0.9324467615979483 0.2718364815740797 -0.9372295339981989 0.05238028721870207 0.02319510836477892
3355329000.0 0.012634670990938337 0.11500200153574282 0.26745357121934543 -0.9359480564326164 0.26121827474558246 -0.9406558450638477 0.05220318162293135 0.020999090062102595
3360328000.0 0.013086306718369772 0.11462348287325524 0.25697799443918923 -0.9393371257976638 0.25054739728915554 -0.9439626693981756 0.0519799139253326 0.018804567187109295
3365327000.0 0.01353742126369844 0.11423632405683634 0.24645018546205766 -0.9426129013730071 0.23982516965428424 -0.9471489145888096 0.05171039516407137 0.016612591635594764
3370326000.0 0.013987809600636029 0.1138402945160761 0.2358712211302068 -0.9457743182866826 0.22905294222125713 -0.9502135020561844 0.051394562341787825 0.014424222217304383
3375325000.0 0.014437254250762255 0.11343516869571846 0.22524220596768774 -0.9488203159163275 0.21823209518253753 -0.9531553680270154 0.05103237877105757 0.012240523957681958
3380324000.0 0.014885525397939647 0.11302072657894759 0.21456427244616236 -0.9517498387071105 0.20736403838936965 -0.9559734645077994 0.050623834399073704 0.010062567384311842
3385323000.0 0.015332381022907435 0.1125967542087325 0.20383858122573167 -0.954561837005423 0.19645021116352723 -0.9586667602570331 0.050168946110894536 0.007891427798750465
3390322000.0 0.015777567058061038 0.11216304420648661 0.19306632137007435 -0.957255267907583 0.1854920820742181 -0.9612342417548101 0.04966775801061686 0.005728184534474831
3395321000.0 0.016220817562408063 0.11171939628728919 0.1822487105352013 -0.9598290961227921 0.17449114868017607 -0.9636749141684608 0.0491203416798778 0.0035739202016812906
3400320000.0 0.01666185491665885 0.11126561777093716 0.1713869951311851 -0.9622822948495539 0.1634489372370782 -0.9659878023129059 0.0485267964131053 0.0014297199197311474
3405319000.0 0.017100390038383255 0.11080152408806922 0.16048245045617981 -0.9646138466647314 0.1523670023704103 -0.9681719516043957 0.04788724942897159 -0.0007033294619683959
3410318000.0 0.017536122617144545 0.11032693928061305 0.14953638080215442 -0.9668227444243799 0.1412469267140361 -0.9702264290063055 0.047201856057536476 -0.0028241401538156388
3415317000.0 0.017968741369494466 0.10984169649580339 0.1385501195316896 -0.9689079921754937 0.1300903205146919 -0.9721503239656907 0.046470799902598725 -0.004931624225757901
3420316000.0 0.018397924313665163 0.10934563847302754 0.12752502912530278 -0.9708686060777383 0.11889882120277244 -0.9739427493392724 0.04569429297879461 -0.007024694416042774
3425315000.0 0.018823339063814396 0.10883861802273792 0.11646250119872786 -0.9727036153342475 0.10767409292975168 -0.9756028423075953 0.044872575823049876 -0.009102264948105147
3430314000.0 0.019244643143594236 0.10832049849669427 0.10536395648965644 -0.9744120631305087 0.09641782607270306 -0.9771297652760532 0.04400591757998212 -0.011163252354665625
3435313000.0 0.019661484318833605 0.10779115424878288 0.09423084481339229 -0.9759930075803542 0.08513173670633806 -0.9785227067615513 0.04309461606092154 -0.013206576308130243
3440312000.0 0.02007350094906725 0.10725047108568227 0.08306464498703227 -0.9774455226780402 0.07381756604317577 -0.9797808822635539 0.042138997776239334 -0.015231160456337134
3445311000.0 0.020480322357640926 0.10669834670662572 0.07186686472167196 -0.9787686992553692 0.06247707984234967 -0.9809035351183123 0.041139417940715614 -0.01723593326271166
3450310000.0 0.02088156922006446 0.1061346911315481 0.06063904048228426 -0.9799616459427944 0.051112067787733514 -0.9818899373350812 0.04009626045170507 -0.019219828849849612
3455309000.0 0.02127685397028765 0.10555942711688086 0.049382737314876364 -0.9810234901334147 0.039724342836032496 -0.9827393904131649 0.0390099378399193 -0.021181787845564976
3460308000.0 0.021665781224526066 0.10497249055828808 0.03809954864061848 -0.981953378948747 0.028315740535590005 -0.983451226138659 0.037880891192658285 -0.02312075823040777
3465307000.0 0.022047948222242764 0.10437383087963278 0.026791096016639177 -0.9827504802051441 0.016888118316667314 -0.9840248073597834 0.0367095900493839 -0.025035696185671346
3470306000.0 0.022422945283860265 0.10376341140748707 0.01545902886322155 -0.9834139833797082 0.005443354753998757 -0.9844595287397523 0.035496532269551885 -0.02692556694088009
3475305000.0 0.022790356284763644 0.10314120973048686 0.004105024157213361 -0.9839431005745168 -0.006016651197486908 -0.9847548174861203 0.03424224387267156 -0.028789345619771593
3480304000.0 0.023149759145100247 0.10250721804287598 -0.007269213908559644 -0.9843370674779777 -0.017489980992922306 -0.984910134055639 0.032947278850585904 -0.03062601808375924
3485303000.0 0.023500726334889067 0.10186144347156657 -0.018661954299975744 -0.984595144322108 -0.028974697312757196 -0.9849249728336441 0.03161221895203162 -0.03243458177188233
3490302000.0 0.023842825393892517 0.10120390838608091 -0.03007143955052242 -0.984716616834502 -0.04046884490208005 -0.9847988627870637 0.030237673439538804 -0.03421404653624195
3495301000.0 0.024175619465707662 0.10053465069073952 -0.041495886204447094 -0.9847007971837575 -0.051970451432967316 -0.9845313680901631 0.028824278818815666 -0.03596343547192439
3500300000.0 0.024498667845472628 0.09985372409848692 -0.05293348529416201 -0.9845470249171151 -0.0634775283888288 -0.9841220887222089 0.027372698540755157 -0.03768178574042539
3505299000.0 0.0248115265405976 0.09916119838575738 -0.06438240285186644 -0.984254667889041 -0.07498807196967541 -0.9835706610362374 0.025883622676287705 -0.039368149385589614
3510298000.0 0.02511374884387081 0.09845715962780698 -0.07584078045529569 -0.9838231231794833 -0.0865000640172107 -0.9828767582982063 0.024357767564298617 -0.04102159414109111
3515297000.0 0.025404885918277026 0.09774171041395836 -0.08730673580744996 -0.9832518180005334 -0.09801147295860405 -0.9820400911958225 0.022795875432896053 -0.042641204228487835
3520296000.0 0.02568448739285333 0.0970149700422142 -0.09877836335013307 -0.9825402105901985 -0.10952025476780598 -0.9810604083163921 0.02119871399434622 -0.04422608114490586
3525295000.0 0.02595210196885549 0.09627707469274016 -0.11025373491103994 -0.9816877910920024 -0.12102435394320633 -0.9799374965931024 0.019567076014016374 -0.045775344439402475
3530294000.0 0.02620727803551626 0.09552817757971602 -0.12173090038414598 -0.9806940824191305 -0.13252170450047066 -0.9786711817191764 0.017901778853724213 -0.04728813247709632
3535293000.0 0.026449564294627657 0.09476844908109898 -0.13320788844301323 -0.9795586411018146 -0.1440102309792943 -0.9772613285293977 0.01620366398990846 -0.0487636031901493
3540292000.0 0.026678510393170374 0.09399807684585657 -0.14468270728666746 -0.9782810581166898 -0.15548784946288075 -0.9757078413485634 0.014473596507077788 -0.05020093481471364
3545291000.0 0.0268936675631984 0.09321726587825419 -0.15615334541757736 -0.9768609596968278 -0.16695246860887294 -0.9740106643064592 0.012712464567036287 -0.0515993266129785
3550290000.0 0.027094589268141754 0.092426238598817 -0.16761777245126436 -0.975298008121172 -0.1784019906904975 -0.9721697816190055 0.010921178854395582 -0.05295799957946314
3555289000.0 0.027280831854702266 0.09162523488160869 -0.17907393995697388 -0.9735919024821176 -0.18983431264663353 -0.9701852178352949 0.009100671998939481 -0.05427619713073068
3560288000.0 0.027451955209477557 0.09081451206749944 -0.19051978232882869 -0.971742379429959 -0.20124732713955165 -0.9680570380502515 0.007251897975421098 -0.05555318577772261
3565287000.0 0.027607523419430978 0.08999434495312904 -0.20195321768681135 -0.9697492138929841 -0.2126389236190429 -0.9657853480827443 0.005375831481405677 -0.056788255779932094
3570286000.0 0.027747105435325565 0.08916502575529979 -0.21337214880685446 -0.9676122197719706 -0.2240069893916401 -0.9633702946190005 0.003473467293802619 -0.057980721780669556
3575285000.0 0.027870275737205043 0.08832686405056993 -0.22477446407931057 -0.9653312506078862 -0.2353494106936846 -0.960812065321235 0.0015458196047585247 -0.059129923422686616
3580284000.0 0.027976615001001126 0.08748018668985048 -0.23615803849494732 -0.9629062002215982 -0.2466640737669122 -0.9581108889014598 -0.0004060786624008724 -0.06023522594346542
3585283000.0 0.028065710765332905 0.0866253376878373 -0.24752073465766022 -0.9603370033244176 -0.25794886593534383 -0.9552670351604761 -0.0023811765564534368 -0.06129602074950768
3590282000.0 0.028137158097550168 0.08576267808715818 -0.25886040382294295 -0.9576236360983647 -0.2692016766821682 -0.9522808149921395 -0.0043784058200549165 -0.06231172596897408
3595281000.0 0.028190560258062627 0.08489258579713406 -0.27017488696117026 -0.9547661167449946 -0.2804203987253806 -0.9491525803529713 -0.006396681629233638 -0.06328178698207526
3600280000.0 0.028225529361984338 0.08401545540710662 -0.2814620158446635 -0.951764506001761 -0.29160292909092034 -0.9458827241973289 -0.008434903349828745 -0.06420567692862836
3605279000.0 0.02824168703713143 0.08313169797431123 -0.29271961415750203 -0.9486189076248059 -0.30274717018209957 -0.9424716803782925 -0.01049195531006845 -0.06508289719223527
3610278000.0 0.028238665077374124 0.08224174078631073 -0.3039454986269213 -0.9453294688372107 -0.3138510308440684 -0.9389199235145763 -0.012566707588468597 -0.0659129778605704
3615277000.0 0.02821610609037475 0.08134602709805605 -0.31513748017517035 -0.9418963807416912 -0.32491242742214593 -0.9352279688237256 -0.014658016816221288 -0.06669547816129241
3620276000.0 0.028173664138715374 0.08044501584366627 -0.3262933650905931 -0.9383198786968344 -0.3359292848128123 -0.931396371921988 -0.016764726993218477 -0.06742998687313131
3625275000.0 0.028111005373422857 0.07953918132306334 -0.3374109562167069 -0.9346002426559464 -0.34689953750623115 -0.9274257285912171 -0.01888567031685975 -0.06811612271173952
3630274000.0 0.02802780865891439 0.07862901286363984 -0.3484880541579424 -0.930737797467692 -0.35782113061912263 -0.9233166745132751 -0.021019668022759584 -0.06875353468992224
3635273000.0 0.02792376618836212 0.07771501445717761 -0.3595224585007365 -0.9267329131376988 -0.3686920209169099 -0.9190698849723868 -0.0231655312364837 -0.06934190245189598
3640272000.0 0.027798584088500045 0.0767977043722685 -0.3705119690485731 -0.9225860050503875 -0.3795101778240224 -0.914686074525989 -0.02532206183541667 -0.06988093658126944
3645271000.0 0.02765198301289828 0.07587761474253554 -0.3814543870695692 -0.9182975341503119 -0.3902735844213172 -0.9101659966445986 -0.02748805331986869 -0.07037037888246042
3650270000.0 0.027483698722723805 0.07495529113099407 -0.3923475165551319 -0.91386800708237 -0.4009802384295598 -0.9055104433213336 -0.029662291692515688 -0.07081000263530363
3655269000.0 0.027293482654032756 0.07403129207092811 -0.4031891654882044 -0.9092979762902843 -0.4116281531779803 -0.9007202446516778 -0.03184355634526678 -0.07119961282263568
3660268000.0 0.027081102470642642 0.0731061885836905 -0.4139771471195769 -0.9045880400728228 -0.4222153585569237 -0.8957962683841804 -0.034030620952654946 -0.07153904633068936
3665267000.0 0.026846342601637263 0.07218056367390131 -0.424709281250706 -0.8997388425972712 -0.43273990195365636 -0.8907394194427728 -0.036222254370834324 -0.07182817212213272
3670266000.0 0.026589004762587787 0.07125501180252237 -0.4353833955214554 -0.8947510738697473 -0.44319984917041383 -0.8855506394214261 -0.03841722154127684 -0.07206689138165938
3675265000.0 0.026308908459573333 0.0703301383383533 -0.4459973267011513 -0.8896254696620154 -0.4535932853238178 -0.8802309060519259 -0.0406142843982648 -0.07225513763404307
3680264000.0 0.02600589147511373 0.0694065589885236 -0.4565489219813443 -0.8843628113944798 -0.46391831572484366 -0.8747812326455146 -0.042812202779265576 -0.07239287683460591
3685263000.0 0.025679810335142578 0.06848489920858698 -0.46703604026859497 -0.8789639259751726 -0.47417306673850534 -0.8692026675092419 -0.045009735337289206 -0.07248010743209418
3690262000.0 0.02533054075615945 0.06756579359287312 -0.4774565534756357 -0.8734296855945435 -0.48435568662250544 -0.8634962933378336 -0.04720564045434222 -0.07251686040397246
3695261000.0 0.02495797807174887 0.06664988524577825 -0.48780834780923277 -0.8677610074759925 -0.4944643463441279 -0.8576632265819482 -0.04939867715506866 -0.07250319926418748
3700260000.0 0.024562037637646757 0.06573782513472493 -0.49808932505304454 -0.8619588535821018 -0.5044972403746688 -0.8517046167936825 -0.05158760601971493 -0.07243922004347302
3705259000.0 0.024142655214587753 0.06483027142553446 -0.5082974038437953 -0.856024230276632 -0.5144525874607638 -0.8456216459502317 -0.05377119009553395 -0.07232505124231466
3710258000.0 0.023699787328173898 0.06392788880102131 -0.5184305209390337 -0.8499581879424002 -0.5243286313719808 -0.8394155277566099 -0.055948195805767154 -0.07216085375669883
3715257000.0 0.023233411605059026 0.06303134776361667 -0.5284866324747979 -0.843761820555228 -0.5341236416241129 -0.8330875069283559 -0.05811739385534443 -0.0719468207768187
3720256000.0 0.022743527084734764 0.0621413239228832 -0.538463715211483 -0.8374362652142269 -0.543835914177642 -0.8266388584551602 -0.06027756013247969 -0.07168317765893062
3725255000.0 0.022230154506295785 0.06125849726881602 -0.5483597677661797 -0.8309827016287543 -0.5534637721108431 -0.8200708868463699 -0.06242747660529875 -0.07137018177057018
3730254000.0 0.021693336569524112 0.06038355143182691 -0.5581728118298454 -0.824402351562452 -0.5630055662671043 -0.8133849253593344 -0.06456593221271882 -0.07100812230938694
3735253000.0 0.021133138169736186 0.05951717293037369 -0.5679008933675788 -0.8176964782348434 -0.5724596758760081 -0.8065823352115483 -0.06669172374875194 -0.07059732009585609
3740252000.0 0.020549646605821318 0.05866005040718753 -0.5775420838003836 -0.8108663856810302 -0.581824509147825 -0.7996645047775717 -0.06880365673945162 -0.0701381273401702
3745251000.0 0.019942971760968455 0.05781287385510593 -0.5870944811667306 -0.8039134180701378 -0.5910985038410402 -0.792632848771726 -0.07090054631173691 -0.06963092738362321
3750250000.0 0.019313246255608287 0.05697633383352117 -0.5965562112623226 -0.7968389589831717 -0.6002801278026193 -0.7854888074175177 -0.07298121805332261 -0.06907613441483026
3755249000.0 0.018660625572124508 0.05615112067648083 -0.6059254287564688 -0.7896444306510625 -0.6093678794807642 -0.778233845604804 -0.07504450886303604 -0.0684741931611464
3760248000.0 0.017985288150959174 0.05533792369350725 -0.6152003182834714 -0.7823312931537325 -0.6183602884098873 -0.7708694520356695 -0.07708926779077416 -0.06782557855566115
3765247000.0 0.017287435457748822 0.0545374303641995 -0.6243790955075167 -0.7749010435810754 -0.6272559156676459 -0.7633971383600056 -0.07911435686641737 -0.06713079538018578
3770246000.0 0.01656729202118787 0.05375032552772598 -0.6334600081595313 -0.7673552151568251 -0.636053354303842 -0.7558184383017892 -0.08111865191699452 -0.06639037788463407
3775245000.0 0.01582510544135793 0.05297729056829469 -0.6424413370445873 -0.7596953763263201 -0.6447512297411072 -0.7481349067769993 -0.08310104337144504 -0.0656048893832599
3780244000.0 0.015061146368296446 0.052219002597740434 -0.6513213970183778 -0.7519231298092973 -0.6533482001472402 -0.7403481190042044 -0.08506043705231896 -0.06477492182818971
3785243000.0 0.014275708450641677 0.05147613363633961 -0.6600985379314133 -0.744040111618826 -0.6618429567791676 -0.7324596696087337 -0.0869957549537846 -0.0639010953607361
3790242000.0 0.013469108254207891 0.05074934979300239 -0.6687711455395992 -0.7360479900476359 -0.6702342242985049 -0.7244711717214343 -0.08890593600533991 -0.06298405784097524
3795241000.0 0.012641685150429795 0.050039310445982185 -0.6773376423799019 -0.7279484646230785 -0.6785207610587212 -0.7163842560729343 -0.09078993682061896 -0.062024484356093326
3800240000.0 0.011793801174615655 0.04934666742524331 -0.6857964886098826 -0.7197432650320844 -0.6867013593639643 -0.7082005700843864 -0.0926467324307409 -0.0610230767080235
3805239000.0 0.0109258408540349 0.04867206419765307 -0.6941461828099027 -0.7114341500174622 -0.6947748456996025 -0.699921776955587 -0.09447531700163124 -0.059980562880895025
3810238000.0 0.010038211005888836 0.04801613505613095 -0.7023852627469022 -0.7030229062470033 -0.7027400809346116 -0.6915495547514342 -0.09627470453478995 -0.05889769648884735
3815237000.0 0.00913134050526662 0.047379504313917103 -0.7105123060986682 -0.6945113471568449 -0.7105959604959204 -0.6830855954875868 -0.09804392955099264 -0.05777525620475527
3820236000.0 0.008205680023228301 0.04676278550509917 -0.7185259311376152 -0.6859013117706401 -0.7183414145148943 -0.6745316042162557 -0.09978204775643322 -0.05661404517043313
3825235000.0 0.007261701735228432 0.046166580592537136 -0.7264247973731295 -0.6771946634960807 -0.7259754079461418 -0.6658892981129857 -0.10148813669082214 -0.055414890388890865
3830234000.0 0.006299899000093375 0.045591479184314686 -0.7342076061516014 -0.6683932889004012 -0.7334969406588531 -0.6571604055653048 -0.10316129635700151 -0.05417864209923243
3835233000.0 0.005320786009849533 0.04503805775985279 -0.7418731012133781 -0.6594990964664901 -0.7409050475009402 -0.648346665264085 -0.10480064983163975 -0.05290617313476784
3840232000.0 0.004324897410740663 0.04450687890676948 -0.7494200692058518 -0.6505140153312843 -0.7481987983362061 -0.6394498252984372 -0.10640534385657549 -0.05159837826496872
3845231000.0 0.003312787895787978 0.04399849056961074 -0.7568473401520776 -0.6414399940081771 -0.7553772980548815 -0.6304716422549885 -0.10797454941043882 -0.0502561735218457
3850230000.0 0.0022850317693248 0.04351342531150982 -0.7641537878742828 -0.6322789990951423 -0.7624396865577966 -0.6214138803223047 -0.10950746226015319 -0.04888049551137817
3855229000.0 0.001242222483953064 0.0430521995898563 -0.7713383303718041 -0.6230330139703452 -0.7693851387145787 -0.6122783104012551 -0.11100330349198045 -0.0474723007106038
3860228000.0 0.00018497215044075828 0.04261531304700207 -0.7783999301529524 -0.6137040374770217 -0.7762128642961732 -0.6030667092220873 -0.11246132002174428 -0.04603256475100325
3865227000.0 -0.0008860889789271912 0.04220324781704086 -0.7853375945204828 -0.6042940825994165 -0.7829221078821096 -0.5937808584689546 -0.11388078508394517 -0.044562281688797105
3870226000.0 -0.001970313052933012 0.04181646784965898 -0.7921503758103754 -0.594805175131569 -0.7895121487429086 -0.5844225439126026 -0.11526099869944083 -0.04306246326279252
3875225000.0 -0.0030670351893502504 0.04145541825202489 -0.7988373715836775 -0.585239352340794 -0.7959823006980035 -0.5749935545519507 -0.11660128812142072 -0.041534138140421756
3880224000.0 -0.0041755740675334585 0.04112052464967896 -0.8053977247713158 -0.5755986616276566 -0.8023319119496645 -0.5654956817652342 -0.11790100825940954 -0.0399783511526035
3885223000.0 -0.0052952325449937354 0.040812192567344904 -0.8118306237717708 -0.5658851591842715 -0.8085603648933232 -0.5559307184713811 -0.11915954208104972 -0.03839616251806898
3890222000.0 -0.006425298297223976 0.04053080683054884 -0.8181353025016757 -0.5561009086527589 -0.8146670759048107 -0.5463004583022739 -0.12037630099143869 -0.036788647057811874
3895221000.0 -0.007565044480020185 0.04027673098892329 -0.8243110403993774 -0.5462479797856508 -0.8206514951049343 -0.5366066947865014 -0.12155072518980811 -0.03515689340028768
3900220000.0 -0.008713730413498391 0.04005030676202013 -0.8303571623816735 -0.5363284471101135 -0.8265131061019336 -0.5268512205452595 -0.12268228400334867 -0.03350200317803214
3905219000.0 -0.009870602286992243 0.039851853508440616 -0.8362730387539274 -0.5263443885977265 -0.832251425712288 -0.5170358265009287 -0.12377047619800553 -0.0318250902163303
3910218000.0 -0.01103489388397048 0.039681667719039276 -0.8420580850739062 -0.5162978843416315 -0.8378660036604106 -0.5071623010989211 -0.12481483026608174 -0.030127279714605996
3915217000.0 -0.01220582732610916 0.03954002253495051 -0.8477117619697092 -0.5061910152428435 -0.8433564222577513 -0.4972324295433685 -0.12581490469051218 -0.028409707421164186
3920216000.0 -0.013382613835594285 0.03942716729112356 -0.8532335749122583 -0.49602586170742535 -0.8487222960618487 -0.48724799304712785 -0.12677028818566732 -0.02667351880195455
3925215000.0 -0.014564454514747947 0.03934332708602946 -0.858623073942867 -0.48580450235629635 -0.8539632715158699 -0.47721076809666235 -0.12768059991459293 -0.02491986820400092
3930214000.0 -0.015750541142006066 0.03928870237816808 -0.863879853356519 -0.47552901274932863 -0.8590790265692297 -0.4671225257322439 -0.1285454896825696 -0.02314991801414932
3935213000.0 -0.01694005698329376 0.03926346860996126 -0.8690035513414849 -0.46520146412544094 -0.8640692702798073 -0.4569850308439761 -0.12936463810693186 -0.021364837813792538
3940212000.0 -0.018132177617796185 0.03926777585957295 -0.8739938495760481 -0.4548239221602943 -0.8689337423983803 -0.44680004148406977 -0.1301377567630693 -0.01956580353021918
3945211000.0 -0.019326071777115008 0.039301748521183934 -0.8788504727831075 -0.44439844574320597 -0.8736722129358239 -0.43656930819581186 -0.13086458830656056 -0.01775399658523639
3950210000.0 -0.020520902196804826 0.039365485014168804 -0.8835731882435593 -0.43392708577482686 -0.8782844817136986 -0.4262945733596164 -0.1315449065714192 -0.01593060304172881
3955209000.0 -0.021715826479225996 0.039459057521628975 -0.888161805269332 -0.42341188398711166 -0.882770377898783 -0.41597757055657214 -0.13217851664441743 -0.014096812748787215
3960208000.0 -0.022909997966684005 0.03958251175865358 -0.8926161746370931 -0.41285487178706803 -0.8871297595221785 -0.40562002394985086 -0.1327652549154904 -0.012253818486078294
3965207000.0 -0.024102566623784086 0.03973586677068227 -0.8969361879836646 -0.4022580691256941 -0.891362512983601 -0.3952236476843276 -0.13330498910423555 -0.010402815108076629
3970206000.0 -0.02529267992794063 0.03991911476225535 -0.9011217771642004 -0.39162348339349873 -0.8954685525414244 -0.38479014530474026 -0.1337976182625281 -0.008544998688836007
3975205000.0 -0.02647948376695215 0.04013222095645385 -0.9051729135743185 -0.38095310834395 -0.8994478197891442 -0.374321209192733 -0.13424307275329272 -0.006681565667919723
3980204000.0 -0.027662123342573754 0.0403751234852338 -0.9090896074373559 -0.3702489230461063 -0.9033002831188569 -0.36381852002304277 -0.13464131420549683 -0.004813711998156108
3985203000.0 -0.028839744078988788 0.040647733310867344 -0.9128719070579734 -0.35951289086768523 -0.9070259371723616 -0.3532837462391475 -0.13499233544541905 -0.0029426322958448306
3990202000.0 -0.030011492535097845 0.04094993417864188 -0.9165198980434166 -0.3487469584897259 -0.9106248022805372 -0.3427185435486128 -0.13529616040429568 -0.0010695189940657453
3995201000.0 -0.03117651731953189 0.04128158260091809 -0.9200337024937508 -0.3379530549539688 -0.9140969238916107 -0.33212455443839595 -0.1355528440024328 0.0008044385002702369
4000200000.0 -0.032333970007299664 0.04164250787264215 -0.9234134781624159 -0.32713309074402147 -0.9174423719889423 -0.3215034077103451 -0.13576247200990443 0.0026780546449935018
4005199000.0 -0.033483006056984156 0.04203251211834104 -0.9266594175885303 -0.31628895690128345 -0.9206612404989739 -0.3108567180370762 -0.1359251608839646 0.004550148596240515
4010198000.0 -0.03462278572740245 0.042451370370597 -0.9297717472023371 -0.30542252417658805 -0.9237536466899532 -0.30018608553844606 -0.13604105758331964 0.0064195450363643105
4015197000.0 -0.035752474992638325 0.042898830679972084 -0.9327507264052901 -0.29453564221845613 -0.9267197305620943 -0.28949309537881246 -0.13611033935941222 0.008285074995570225
4020196000.0 -0.036871246454397884 0.043374614256305406 -0.9355966466262572 -0.2836301387987393 -0.9295596542298052 -0.27877931738520595 -0.13613321352491045 0.010145576666643764
4025195000.0 -0.037978280250592474 0.04387841564127669 -0.9383098303553349 -0.27270781907642544 -0.9322736012965994 -0.2680463056865818 -0.13610991719956575 0.011999896212151872
4030194000.0 -0.039072764959107394 0.04440990291208328 -0.9408906301568452 -0.261770464900314 -0.9348617762233601 -0.25729559837429056 -0.1360407170336684 0.013846888563477763
4035193000.0 -0.040153898495698684 0.0449687179160604 -0.9433394276630491 -0.25081983415115733 -0.9373244036905936 -0.24652871718385838 -0.1359259089093052 0.015685418211089232
4040192000.0 -0.041220889004988326 0.045554476536029204 -0.9456566325501523 -0.23985766012385637 -0.9396617279552846 -0.2357471671981967 -0.13576581761967024 0.017514359985412755
4045191000.0 -0.04227295574350721 0.046166768986115936 -0.947842681498187 -0.22888565095018604 -0.9418740122030288 -0.22495243657229688 -0.1355607965266573 0.01933259982769758
4050190000.0 -0.04330932995379938 0.04680516013777862 -0.9498980371363716 -0.2179054890625113 -0.9439615378960584 -0.21414599627950398 -0.13531122719703412 0.021139035550272862
4055189000.0 -0.044329255728558115 0.04746918987572152 -0.9518231869755673 -0.20691883069885458 -0.9459246041178325 -0.20332929987941126 -0.13501751901745246 0.022932577585582776
4060188000.0 -0.045331990863818325 0.048158373483349164 -0.9536186423294032 -0.1959273054496023 -0.9477635269147845 -0.19250378330738668 -0.1346801087886097 0.024712149723395523
4065187000.0 -0.04631680770023371 0.04887220205740958 -0.9552849372257267 -0.184932515846136 -0.9494786386359179 -0.18167086468579483 -0.13429946029888215 0.026476689835612025
4070186000.0 -0.047282993951463306 0.04961014295140088 -0.956822627309973 -0.17393603699152851 -0.9510702872708582 -0.17083194415687267 -0.13387606387774684 0.02822515058805639
4075185000.0 -0.0482298535187394 0.050371640247329985 -0.9582322887420784 -0.16293941623346217 -0.952538835787016 -0.15998840373729312 -0.1334104359293561 0.029956500138681726
4080184000.0 -0.0491567072906944 0.05115611525535627 -0.9595145170885286 -0.15194417287937337 -0.9538846614664868 -0.1491416071943291 -0.1329031184466353 0.03166972282160768
4085183000.0 -0.05006289392751185 0.05196296704084746 -0.9606699262111676 -0.14095179795388904 -0.9551081552433334 -0.13829289994364968 -0.13235467850626395 0.033363819816419824
4090182000.0 -0.05094777062854069 0.05279157297832164 -0.9616991471543566 -0.12996375399843044 -0.9562097210418954 -0.1274436089686236 -0.13176570774497134 0.035037809802156115
4095181000.0 -0.05181071388248145 0.05364128933176191 -0.9626028270320458 -0.11898147491289837 -0.9571897751167354 -0.11659504276110565 -0.13113682181754444 0.036690729595440924
4100180000.0 -0.05265112019929464 0.054511451860728415 -0.9633816279163601 -0.10800636583922342 -0.9580487453948794 -0.10574849128356704 -0.13046865983699316 0.03832163477220066
4105179000.0 -0.053468406822998145 0.05540137645168751 -0.9640362257292405 -0.0970398030865814 -0.958787070820973 -0.0949052259525181 -0.1297618837973246 0.03992960027242488
4110178000.0 -0.054262012424532984 0.05631035977396381 -0.9645673091386734 -0.08608313409795153 -0.9594052007059868 -0.08406649964306731 -0.12901717797939632 0.04151372098744796
4115177000.0 -0.05503139777389896 0.057237679959676 -0.9649755784610304 -0.07513767745766754 -0.9599035940800779 -0.07323354671448586 -0.12823524834033564 0.0430731123292208
4120176000.0 -0.055776046390802005 0.058182597307006645 -0.9652617445710383 -0.06420472293956221 -0.9602827190502762 -0.06240758305662813 -0.1274168218870446 0.04460691078106317
4125175000.0 -0.05649546517302387 0.05914435500615175 -0.9654265278208183 -0.053285531595245794 -0.9605430521635666 -0.051589806157041715 -0.12656264603429293 0.04611427442940249
4130174000.0 -0.05718918500181191 0.060122179887238406 -0.9654706569694778 -0.04238133588200864 -0.9606850777760236 -0.040781395188577145 -0.12567348794796296 0.0475943834759991
4135173000.0 -0.05785676132355268 0.061115283189519774 -0.9653948681246634 -0.031493339829790634 -0.9607092874285929 -0.029983511117305826 -0.12475013387399501 0.049046440730195595
4140172000.0 -0.05849777470703704 0.062122861351105216 -0.9651999036974794 -0.020622719246586863 -0.9606161792301396 -0.01919729683049808 -0.12379338845361088 0.05046967208071251
4145171000.0 -0.0591118313756547 0.0631440968184932 -0.9648865113721546 -0.009770621961669668 -0.9604062572483858 -0.008423877284475918 -0.12280407402541751 0.051863326946558055
4150170000.0 -0.059698563713852563 0.06417815887512403 -0.9644554430917509 0.0010618318941127004 -0.9600800309092928 0.002335640327960155 -0.12178302991500169 0.05322667870660086
4155169000.0 -0.0602576307472302 0.06522420448818879 -0.9639074540612943 0.011873549571678474 -0.9596380144055613 0.013080166390756124 -0.1207311117126401 0.05455902510740107
4160168000.0 -0.06078871859566078 0.06628137917288372 -0.96324330176954 0.022663465351515092 -0.9590807261147786 0.023808628658803267 -0.11964919053977538 0.05585968864889184
4165167000.0 -0.06129154089885993 0.06734881787329391 -0.9624637450306193 0.03343054015675999 -0.9584086880278178 0.03451997203338827 -0.11853815230493496 0.05712801694751832
4170166000.0 -0.06176583921381324 0.0684256458590863 -0.961569543046845 0.0441737611324206 -0.9576224251881219 0.04521315831920839 -0.11739889694975027 0.05836338307648849
4175165000.0 -0.06221138338353896 0.06951097963715326 -0.96056145449372 0.054892141191681815 -0.9567224651423544 0.055887165963318094 -0.11623233768578971 0.05956518588276495
4180164000.0 -0.06262797187665244 0.07060392787734182 -0.9594402366284083 0.0655847185302222 -0.9557093374030857 0.06654098977633503 -0.11503940022291859 0.06073285028047747
4185163000.0 -0.0630154320972292 0.0717035923514069 -0.9582066444226705 0.07625055610952863 -0.9545835729240011 0.07717364063627581 -0.11382102198990361 0.061865827520457904
4190162000.0 -0.06337362066449585 0.07280906888427381 -0.956861429721367 0.08688874111023602 -0.9533457035882349 0.08778414517542009 -0.11257815134801642 0.06296359543559074
4195161000.0 -0.06370242366188682 0.07391944831672222 -0.9554053404275318 0.09749838435656524 -0.9519962617103509 0.09837154545062045 -0.11131174679838993 0.06402565866173647
4200160000.0 -0.0640017568550294 0.07503381747855507 -0.9538391197149778 0.10807861971289448 -0.9505357795525122 0.10893489859744149 -0.11002277618389321 0.06505154883396772
4205159000.0 -0.06427156587826222 0.0761512601713283 -0.9521635052693946 0.11862860345363757 -0.9489647888553816 0.11947327646861394 -0.10871221588632343 0.06604082475791455
4210158000.0 -0.06451182638927767 0.07727085815968307 -0.9503792285588052 0.1291475136075263 -0.9472838203842547 0.1299857652572259 -0.10738105001969853 0.06699307255601747
4215157000.0 -0.06472254419154029 0.07839169217031773 -0.9484870141342263 0.13963454927750998 -0.9454934034909281 0.14047146510515848 -0.10603026962046375 0.06790790578851941
4220156000.0 -0.06490375532414389 0.07951284289763577 -0.9464875789613714 0.1500889299374346 -0.9435940656918307 0.15092948969723266 -0.10466087183544673 0.06878496554907053
4225155000.0 -0.06505552611877084 0.08063339201505734 -0.9443816317841194 0.16050989470674512 -0.9415863322628709 0.16135896584159157 -0.10327385910836086 0.06962392053480558
4230154000.0 -0.06517795322348686 0.08175242319101057 -0.9421698725204809 0.17089670160444967 -0.93947072585148 0.17175903303684298 -0.10187023836573307 0.0704244670908339
4235153000.0 -0.06527116359309554 0.08286902310858252 -0.9398529916917308 0.18124862678360876 -0.9372477661063147 0.18212884302650573 -0.1004510202030774 0.07118632922906978
4240152000.0 -0.06533531444579888 0.08398228248778854 -0.9374316698853401 0.19156496374765236 -0.9349179693250669 0.1924675593413308 -0.09901721807217671 0.07190925862137032
4245151000.0 -0.06537059318598316 0.08509129710944138 -0.9349065772522831 0.20184502254980013 -0.9324818481208091 0.20277435683005476 -0.09756984747035156 0.07259303456699978
4250150000.0 -0.06537721729290155 0.08619516883954427 -0.9322783730392319 0.21208812897693888 -0.9299399111072665 0.2130484211792035 -0.0961099251325545 0.07323746393443087
4255149000.0 -0.06535543417512753 0.08729300665316514 -0.9295477051561737 0.22229362371928144 -0.9272926626034667 0.2232889484225477 -0.09463846822718648 0.07384238107756629
4260148000.0 -0.06530552099062957 0.08838392765668791 -0.9267152097798325 0.23246086152715806 -0.9245406023580939 0.23349514444083566 -0.09315649355650187 0.0744076477264494
4265147000.0 -0.065227784432358 0.0894670581073866 -0.9237815109933254 0.2425892103563207 -0.9216842252939389 0.24366622445245575 -0.09166501676246662 0.07493315285262114
4270146000.0 -0.06512256047929803 0.09054153442918839 -0.9207472204624009 0.25267805050309994 -0.9187240212728087 0.25380141249565685 -0.09016505153897997 0.07541881250925159
4275145000.0 -0.06499021411289657 0.09160650422354583 -0.9176129371485128 0.26272677373088127 -0.9156604748811776 0.26389994090306734 -0.08865760885128667 0.07586456964626116
4280144000.0 -0.0648311389989008 0.09266112727427932 -0.9143792470590374 0.272734782389193 -0.912494065236936 0.27396104976910796 -0.08714369616350527 0.07627039390064218
4285143000.0 -0.06464575713459042 0.09370457654526922 -0.9110467230347773 0.28270148852689947 -0.9092252658174921 0.2839839864110768 -0.08562431667511311 0.07663628136224719
4290142000.0 -0.0644345184614664 0.09473603916984621 -0.9076159245749292 0.29262631300087816 -0.9058545443095006 0.2939680048246009 -0.08410046856725603 0.07696225431532111
4295141000.0 -0.064197900443476 0.09575471743075924 -0.9040873976996329 0.30250868458156477 -0.9023823624804869 0.3039123651341416 -0.08257314425975663 0.07724836095613172
4300140000.0 -0.0639364076108976 0.0967598297295352 -0.9004616748501054 0.31234803905685316 -0.8988091760725521 0.31381633303937106 -0.08104332967966218 0.07749467508702738
4305139000.0 -0.06365057107002609 0.09775061154408483 -0.896739274826399 0.3221438183356866 -0.8951354347183791 0.3236791792580801 -0.07951200354217848 0.0777012957873317
4310138000.0 -0.06334094797886064 0.09872631637337954 -0.8929207027627318 0.3318954695528488 -0.8913615818797269 0.33350017896647727 -0.0779801366448259 0.07786834706149838
4315137000.0 -0.06300812098900363 0.09968621666803056 -0.8890064501402767 0.3416024441763012 -0.887488054808541 0.34327861123757386 -0.07644869117562993 0.07799597746499237
4320136000.0 -0.06265269765405142 0.1006296047455807 -0.8849969948372679 0.3512641971185168 -0.8835152845308227 0.35301375847847527 -0.07491862003616524 0.07808435970838368
4325135000.0 -0.0622753098047558 0.10155579368933067 -0.8808928012162321 0.3608801858532187 -0.8794436958533527 0.36270490586736603 -0.07339086618023091 0.07813369024018642
4330134000.0 -0.061876612891317365 0.10246411822951673 -0.8766943202481008 0.37044986953892073 -0.8752737073933576 0.372351340790983 -0.07186636196894156 0.07814418880900893
4335133000.0 -0.06145728529318305 0.10335393560563311 -0.8724019896728591 0.3799727081506883 -0.8710057316311295 0.3819523522833997 -0.07034602854299467 0.07811609800558736
4340132000.0 -0.06101802759675977 0.10422462640874242 -0.8680162341964665 0.389448161621467 -0.8666401749856824 0.3915072304668958 -0.06883077521283146 0.07804968278536482
4345131000.0 -0.06055956184152774 0.1050755954025534 -0.863537465723564 0.3988756889943987 -0.8621774379133863 0.40101526599577697 -0.06732149886743338 0.07794522997223603
4350130000.0 -0.06008263073504609 0.10590627232209185 -0.8589660836255737 0.4082547475874769 -0.8576179150295651 0.41047574950394367 -0.06581908340242724 0.07780304774416005
4355129000.0 -0.05958799683740541 0.10671611264879441 -0.8543024750436631 0.41758479217187966 -0.8529619952529972 0.41988797105703546 -0.06432439916817469 0.07762346510136606
4360128000.0 -0.05907644171572954 0.10750459836082264 -0.8495470152260395 0.4268652741653293 -0.8482100619732299 0.42925121960998586 -0.06283830243849531 0.07740683131788292
4365127000.0 -0.0585487650693494 0.1082712386574534 -0.8447000678989702 0.4360956408417832 -0.8433624932405804 0.4385647824708063 -0.06136163490062079 0.0771535153771813
4370126000.0 -0.05800578382636087 0.10901557065636164 -0.8397619856708772 0.44527533455877516 -0.8384196619786766 0.44782794477145343 -0.05989522316699102 0.07686390539271945
4375125000.0 -0.05744833121227658 0.10973716006265076 -0.8347331104688147 0.4544037920036548 -0.8333819362193627 0.45703998894658243 -0.05843987830943083 0.07653840801422089
4380124000.0 -0.05687725579157178 0.11043560180849954 -0.8296137740065713 0.463480443459999 -0.8282496793597472 0.4662001942210278 -0.05699639541624565 0.07617744782055443
4385123000.0 -0.05629342048292519 0.11111052066228502 -0.8244042982836333 0.4725047120954214 -0.8230232504411849 0.47530783610684346 -0.055565553172712605 0.07578146670006654
4390122000.0 -0.05569770154907241 0.11176157180608116 -0.8191049961141099 0.4814760132719629 -0.8177030044498707 0.4843621859107016 -0.05414811346545791 0.0753509232192888
4395121000.0 -0.0550909875621468 0.1123884413804389 -0.8137161716848048 0.49039375388025536 -0.8122892926388116 0.4933625102524837 -0.052744821011103 0.07488629198093008
4400120000.0 -0.05447417834552294 0.11299084699537443 -0.8082381211414363 0.4992573316986025 -0.8067824628707906 0.5023080705958766 -0.05135640300961082 0.07438806297209392
4405119000.0 -0.05384818389316036 0.1135685382065183 -0.8026711332020535 0.5080661347780614 -0.8011828599819903 0.511198122791754 -0.049983568822653916 0.07385674090368538
4410118000.0 -0.053213923267512814 0.11412129695541194 -0.7970154897966336 0.5168195408546286 -0.7954908261658948 0.5200319166351609 -0.048627009677323134 0.07329284454198925
4415117000.0 -0.0525723234771533 0.11464893797292638 -0.7912714667317577 0.5255169167895316 -0.7897067013770147 0.5288086954366451 -0.04728739839547233 0.07269690603338502
4420116000.0 -0.0519243183352364 0.11515130914487426 -0.7854393343792798 0.5341576180386958 -0.7838308237540194 0.5375276956087892 -0.04596538914889805 0.07206947022324094
4425115000.0 -0.05127084730004763 0.11562829183885492 -0.7795193583878427 0.5427409881522446 -0.7778635300617984 0.5461881462685908 -0.04466161724057927 0.07141109396997848
4430114000.0 -0.05061285429888824 0.11607980119143353 -0.7735118004159984 0.5512663583050296 -0.7718051561518945 0.5547892688565189 -0.04337669891211592 0.07072234545533637
4435113000.0 -0.04995128653659507 0.11650578635481011 -0.7674169188857694 0.5597330468590493 -0.7656560374408468 0.5633302767729705 -0.04211123117746723 0.0700038034918869
4440112000.0 -0.04928709329006833 0.11690623070213176 -0.7612349697553212 0.5681403589585451 -0.7594165094058083 0.5718103750327976 -0.04086579168308259 0.06925605682882656
4445111000.0 -0.048621224690192984 0.1172811519906822 -0.7549662073094647 0.5764875861585897 -0.7530869080968855 0.5802287599386483 -0.039640938594420895 0.06847970345709979
4450110000.0 -0.04795463049259329 0.11763060248221274 -0.7486108849666678 0.5847740060879113 -0.7466675706655763 0.5885846187738063 -0.03843721050885862 0.06767534991490788
4455109000.0 -0.0472882588387255 0.11795466901971968 -0.7421692561011264 0.5929988821465507 -0.7401588359086029 0.5968771295151214 -0.037255126394919846 0.0668436105946487
4460108000.0 -0.0466230550088159 0.11825347306002168 -0.7356415748786036 0.6011614632390907 -0.7335610448265669 0.6051054605667836 -0.03609518555771333 0.06598510705232855
4465107000.0 -0.045959960168214575 0.1185271706615834 -0.7290280971045051 0.6092609835439287 -0.7268745411966252 0.6132687705154584 -0.034957867630435284 0.06510046732052661
4470106000.0 -0.04529991010878067 0.11877595242701273 -0.7223290810827614 0.6172966623191675 -0.7200996721585029 0.6213662079074481 -0.03384363259173364 0.06419032522591261
4475105000.0 -0.0446438339869341 0.11900004339977897 -0.7155447884840603 0.6252677037455391 -0.7132367888131044 0.6293969110484146 -0.03275292080871362 0.06325531971237605
4480104000.0 -0.04399265306003923 0.11919970291474664 -0.7086754852218798 0.6331732968067961 -0.7062862468329212 0.6373600078262421 -0.03168615310527061 0.0622960941708029
4485103000.0 -0.04334727942284596 0.1193752244021487 -0.7017214423348154 0.6410126152078552 -0.6992484070834555 0.6452546155575356 -0.03064373085545257 0.061313295776489536
4490102000.0 -0.042708614745709986 0.11952693514473274 -0.6946829368736436 0.6487848173310224 -0.692123636254822 0.6530798408582829 -0.029626036101469685 0.06030757483522292
4495101000.0 -0.04207754901636488 0.1196551959878449 -0.687560252791572 0.656489046230462 -0.6849123075026988 0.660834779539125 -0.028633431695937107 0.05927958413899843
4500100000.0 -0.04145495928703586 0.11976040100231088 -0.6803536818361106 0.6641244296650838 -0.6776148010977916 0.6685185165257019 -0.027666261467902464 0.05822997833236352
4505099000.0 -0.040841708428696624 0.11984297710001196 -0.6730635244409185 0.6716900801699033 -0.6702315050828365 0.676130125804458 -0.026724850412160477 0.057159413290315826
4510098000.0 -0.04023864389430776 0.11990338360217845 -0.6656900906161597 0.6791850951659142 -0.6627628159363922 0.6836686703943216 -0.02580950490130743 0.056068545508728446
4515097000.0 -0.03964659649287872 0.11994211176042437 -0.6582337008356266 0.686608557108391 -0.6552091392423454 0.6911332023445838 -0.02492051291997604 0.05495803150816905
4520096000.0 -0.03906637917621283 0.1199596842306969 -0.6506946869191481 0.6939595336735354 -0.6475708903643134 0.698522762759332 -0.024058144320623077 0.05382852725203835
4525095000.0 -0.03849878584019798 0.11995665450034065 -0.6430733929086393 0.7012370779832283 -0.6398484951239378 0.7058363818486811 -0.02322265110021289 0.05268068757986209
4530094000.0 -0.03794459014252184 0.11993360626857585 -0.6353701759361904 0.708440228867678 -0.6320423904821055 0.7130730790071044 -0.022414267697117202 0.05151516565659196
4535093000.0 -0.03740454433868116 0.11989115278075661 -0.6275854070826906 0.7155680111656028 -0.6241530252221879 0.7202318629190586 -0.021633211307491594 0.05033261243870011
4540092000.0 -0.036879378138161875 0.11982993611688222 -0.6197194722252922 0.7226194360615648 -0.6161808606341829 0.7273117316921004 -0.02087968222037259 0.049133676157860164
4545091000.0 -0.03636979758266123 0.11975062643487325 -0.611772772872286 0.72959350146001 -0.6081263711989011 0.7343116730176651 -0.020153864170704583 0.04791900182293963
4550090000.0 -0.03587648394820112 0.11965392116924768 -0.6037457269837823 0.7364891923954384 -0.5999900452711034 0.7412306643595951 -0.019455924709456923 0.04668923074102571
4555089000.0 -0.03540009267299044 0.11954054418588685 -0.5956387697766883 0.7433054814781477 -0.5917723857605898 0.7480676731705277 -0.018786015589985643 0.045445000058149033
4560088000.0 -0.03494125231286309 0.11941124489367302 -0.5874523545125074 0.7500413293748626 -0.5834739108102313 0.7548216571361867 -0.018144273169749123 0.04418694232034181
4565087000.0 -0.034500563526091495 0.11926679731385857 -0.5791869532664938 0.7566956853235155 -0.5750951544699128 0.7614915644475765 -0.017530818826456386 0.04291568505562731
4570086000.0 -0.034078598089376654 0.11910799910811315 -0.5708430576767118 0.7632674876814021 -0.5666366673653382 0.7680763341010803 -0.016945759387729936 0.041631850377503804
4575085000.0 -0.03367589794674724 0.11893567056627533 -0.562421179671623 0.7697556645058187 -0.5580990173606829 0.7745748962263703 -0.01638918757328213 0.04033605461044073
4580084000.0 -0.0332929742931129 0.1187506535549016 -0.5539218521748374 0.7761591341662873 -0.5494827902140502 0.7809861724420564 -0.015861182448662164 0.039028907937852145
4585083000.0 -0.03293030669413534 0.11855381042780858 -0.5453456297856752 0.7824768059873642 -0.5407885902246681 0.7873090762389263 -0.015361809889534783 0.037711014072997436
4590082000.0 -0.032588342244083995 0.11834602289986586 -0.5366930894343237 0.7887075809210058 -0.5320170408708452 0.7935425133906159 -0.014891123055485277 0.03638296995319252
4595081000.0 -0.03226749476323736 0.11812819088537 -0.5279648310102812 0.7948503522473627 -0.523168785437576 0.7996853823914732 -0.014449162872284866 0.03504536545767615
4600080000.0 -0.03196814403643765 0.11790123130242014 -0.5191614779629717 0.8009040063028875 -0.5142444876328303 0.8057365749214123 -0.014035958521606062 0.033698783149434655
4605079000.0 -0.031690635094221 0.1176660768447788 -0.5102836778733646 0.8068674232344966 -0.5052448321914629 0.8116949763374189 -0.013651527937048213 0.03234379804124659
4610078000.0 -0.03143527753804583 0.1174236747227613 -0.501332102995528 0.8127394777785877 -0.4961705254657228 0.8175594661914475 -0.013295878305479144 0.030980977386141906
4615077000.0 -0.031202344910916308 0.11717498537479704 -0.4923074507671009 0.8185190400635333 -0.4870222960013593 0.8233289187742787 -0.012969006572513734 0.029610880492458146
4620076000.0 -0.030992074114789513 0.11692098115133732 -0.48321044428773147 0.8242049764343765 -0.47780089509831525 0.8290022036850193 -0.012670899951113994 0.028234058563597824
4625075000.0 -0.030804664875958263 0.1166626449728579 -0.47404183276456846 0.8297961502982651 -0.4685070973550003 0.834578186425735 -0.012401536432146055 0.02685105456254951
4630074000.0 -0.030640279259630813 0.11640096896378235 -0.46480239192400047 0.8352914229892306 -0.4591417011951898 0.8400557290207977 -0.012160885295841379 0.02546240310121187
4635073000.0 -0.03049904123477912 0.11613695306418069 -0.4554929243888205 0.8406896546508286 -0.44970552937650954 0.845433690660419 -0.011948907623019416 0.024068630354475613
4640072000.0 -0.030381036290299566 0.11587160362117419 -0.4461142600202134 0.8459897051351573 -0.4401994294796583 0.8507109283678429 -0.011765556804986149 0.02267025399900263
4645071000.0 -0.030286311103437737 0.1156059319620041 -0.43666725622383007 0.8511904349166721 -0.43062427437729905 0.8558862976895761 -0.011610779051019544 0.021267783176567807
4650070000.0 -0.030214873261326707 0.1153409529508018 -0.4271527982194599 0.8562907060192932 -0.4209809626817788 0.8609586534080936 -0.011484513892320811 0.019861718481807733
4655069000.0 -0.030166691036434302 0.11507768353108265 -0.41757179927379706 0.8612893829552164 -0.41127041917073215 0.8659268502763559 -0.011386694681367984 0.018452551974135856
4660068000.0 -0.03014169321661715 0.1148171412561099 -0.4079252008958918 0.8661853336737564 -0.40149359518968974 0.8707897437733895 -0.01131724908559462 0.017040767213597225
4665067000.0 -0.030139768990360333 0.11456034280921695 -0.39821397299493916 0.8709774305187534 -0.39165146903080167 0.8755461908803452 -0.011276099574303516 0.015626839320315195
4670066000.0 -0.030160767887763583 0.11430830251625783 -0.38843911400016257 0.8756645511927493 -0.3817450462868528 0.8801950508761285 -0.011263163897802388 0.01421123505718717
4675065000.0 -0.030204499777647525 0.11406203085238702 -0.37860165094257253 0.8802455797264056 -0.37177536017970464 0.8847351861519105 -0.01127835555768746 0.012794412935437474
4680064000.0 -0.030270734921157064 0.11382253294535694 -0.36870263949854265 0.8847194074515349 -0.36174347186241274 0.8891654630437065 -0.0113215842672909 0.011376823342566143
4685063000.0 -0.0303592040820602 0.11359080707756122 -0.3587431639951027 0.8890849339760065 -0.3516504706941704 0.8934847526820848 -0.011392756401261151 0.009958908692206427
4690062000.0 -0.030469598693906003 0.11336784318905854 -0.3487243373770826 0.8933410681590233 -0.3414974744874314 0.8976919318582365 -0.01149177543331755 0.008541103595363593
4695061000.0 -0.0306015710840875 0.11315462138381789 -0.338647301136077 0.8974867290850516 -0.33128562972632025 0.9017858839054058 -0.011618542361228239 0.007123835052445103
4700060000.0 -0.030754734754748818 0.11295211044141723 -0.32851322520159 0.9015208470347971 -0.3210161117558202 0.9057654995947582 -0.011772956118065857 0.005707522665470572
4705059000.0 -0.030928664720392914 0.11276126633646665 -0.3183233077945416 0.9054423644517171 -0.3106901249409648 0.9096296780447718 -0.011954913968839418 0.004292578869818392
4710058000.0 -0.031122897901963927 0.11258303076794758 -0.30807877524340993 0.9092502369023531 -0.3003089027953581 0.9133773276430533 -0.012164311891643922 0.0028794091847746603
4715057000.0 -0.03133693357705876 0.11241832970072743 -0.2977808817635713 0.9129434340290545 -0.2898737080785442 0.917007366979645 -0.012401044942472614 0.0014684124821862964
4720056000.0 -0.03157023388582499 0.11226807192144411 -0.28743090920019526 0.916520940493474 -0.27938583286154683 0.9205187257906987 -0.012665007602864788 5.998127242783501e-05
4725055000.0 -0.03182222439205335 0.11213314761093794 -0.27703016673529895 0.9199817569093751 -0.2688465985600934 0.9239103459114706 -0.012956094109635576 -0.0013454979931301105
4730054000.0 -0.03209229469882286 0.11201442693540582 -0.26657999055954457 0.9233249007633089 -0.258257355934977 0.9271811822375554 -0.013274198765920727 -0.002747644603980546
4735053000.0 -0.03237979911801922 0.11191275865841827 -0.256081743509492 0.9265494073216511 -0.24761948505913522 0.9303302036931544 -0.013619216232844934 -0.004146083257542228
4740052000.0 -0.03268405739289974 0.11182896877585928 -0.24553681467105998 0.9296543305227195 -0.23693439525101534 0.9333563942053403 -0.013991041801115645 -0.00554044371236001
4745051000.0 -0.033004355472869666 0.1117638591759139 -0.2349466189499249 0.9326387438524925 -0.22620352497376525 0.9362587536830081 -0.014389571641942904 -0.006930360428320263
4750050000.0 -0.03333994633946982 0.11171820632607096 -0.22431259660982228 0.9355017412027683 -0.21542834169999142 0.9390362989994683 -0.014814703036663632 -0.008315472194903766
4755049000.0 -0.03369005088255373 0.11169275998914169 -0.21363621277957257 0.9382424377104056 -0.20461034174168982 0.9416880649773619 -0.015266334584540436 -0.009695421748433972
4760048000.0 -0.034053858825512824 0.11168824197022416 -0.20291895692987688 0.9408599705764754 -0.193751050045139 0.9442131053747002 -0.01574436638820286 -0.011069855379338888
4765047000.0 -0.03443052969836494 0.11170534489648243 -0.19216234232085638 0.9433534998641958 -0.18285201995050152 0.946610493870808 -0.016248700216286507 -0.012438422530462843
4770046000.0 -0.03481919385742525 0.11174473103156367 -0.18136790542139547 0.9457222092745341 -0.17191483291591161 0.9488793250508804 -0.01677923964284172 -0.013800775387494675
4775045000.0 -0.03521895355020558 0.11180703112640962 -0.17053720530142727 0.9479653068984365 -0.16094109820597233 0.9510187153878888 -0.01733589016312127 -0.015156568462588112
4780044000.0 -0.035628884024156794 0.11189284330818497 -0.15967182299828844 0.9500820259447386 -0.14993245254451448 0.9530278042205556 -0.017918559285447857 -0.0165054581722448
4785043000.0 -0.03604803467774066 0.11200273200893515 -0.14877336085831896 0.9520716254427763 -0.13889055973157075 0.9549057547260585 -0.018527156598846756 -0.01784710241060647
4790042000.0 -0.03647543025233146 0.11213722693554909 -0.13784344185496092 0.9539333909189457 -0.12781711022458744 0.9566517548862489 -0.019161593816218358 -0.019181160119260313
4795041000.0 -0.0369100720633318 0.11229682208256074 -0.126883708884543 0.9556666350462978 -0.11671382068385612 0.9582650184459351 -0.019821784792882644 -0.020507290854677198
4800040000.0 -0.037350939268875324 0.11248197478916559 -0.11589582404106549 0.9572706982665741 -0.1055824334822962 0.9597447858620509 -0.02050764552033428 -0.021825154354468003
4805039000.0 -0.03779699017438905 0.11269310484187563 -0.10488146787130785 0.9587449493838608 -0.09442471617974238 0.9610903252422192 -0.021219094095111735 -0.02313441010355933
4810038000.0 -0.038247163571313775 0.11293059362404427 -0.09384233861145369 0.9600887861294891 -0.0832424609618055 0.9623009332715926 -0.021956050662775044 -0.02443471690149251
4815037000.0 -0.03870038010818299 0.11319478331351614 -0.0827801514067335 0.9613016356973889 -0.07203748404371606 0.9633759361263744 -0.022718437336977166 -0.025725732431966367
4820036000.0 -0.03915554369222314 0.1134859761295075 -0.0716966375152719 0.9623829552496705 -0.06081162503926332 0.9643146903729337 -0.023506178093688032 -0.027007112835815094
4825035000.0 -0.03961154291964465 0.11380443362978795 -0.06059354349756155 0.9633322323918924 -0.04956674629524746 0.9651165838510226 -0.024319198640688967 -0.028278512288572515
4830034000.0 -0.04006725253273486 0.11415037605915293 -0.049472630392954214 0.9641489856177263 -0.038304732191857864 0.9657810365398218 -0.025157426262507613 -0.02953958258376537
4835033000.0 -0.040521534901821595 0.11452398175007368 -0.038335672884384574 0.9648327647228145 -0.027027488409273066 0.966307501405527 -0.026020789640979515 -0.030789972723115455
4840032000.0 -0.040973241530203174 0.11492538657635931 -0.02718445845286419 0.9653831511874784 -0.01573694116114304 0.9666954652290501 -0.02690921865172841 -0.03202932851477798
4845031000.0 -0.041421214580058235 0.11535468346057856 -0.016020786522939024 0.9657997585283207 -0.004435036395348994 0.9669444494126821 -0.02782264413684289 -0.033257292180759
4850030000.0 -0.04186428841739479 0.1158119219359122 -0.004846467600523001 0.966082232618516 0.006876261037316239 0.9670540107642904 -0.028760997654138098 -0.034473501974635355
4855029000.0 -0.04230129117403941 0.11629710776301554 0.006336677595568262 0.966230251976839 0.018194968245899598 0.9670237422578362 -0.029724211203398864 -0.03567759181069416
4860028000.0 -0.0427310463246828 0.11681020260242131 0.017526819007108032 0.9662435280254732 0.029519085192824267 0.9668532737689275 -0.03071221693006116 -0.036869190905586297
4865027000.0 -0.043152374276984796 0.11735112374292789 0.02872211811363089 0.9661218053167204 0.04084659561742517 0.9665422727841698 -0.03172494680684374 -0.03804792343356036
4870026000.0 -0.04356409397274368 0.11791974388630587 0.039920728812069955 0.9658648617287492 0.05217546798874065 0.9660904450830514 -0.03276233229388343 -0.03921340819636601
4875025000.0 -0.04396502449813663 0.11851589098865023 0.051120798297564635 0.9654725086306623 0.06350365648668255 0.9654975353912093 -0.03382430397797187 -0.040365258308837214
4880024000.0 -0.044353986701028594 0.1191393481585704 0.06232046794423188 0.9649445910170901 0.07482910201070567 0.9647633280038215 -0.03491079119154414 -0.04150308090118545
4885023000.0 -0.044729804813378224 0.11978985361238671 0.07351787418470626 0.964280987612723 0.08614973321503068 0.9638876473780392 -0.03602172161210701 -0.04262647683898193
4890022000.0 -0.04509130807675527 0.12046710068639055 0.08471114938732589 0.9634816109470881 0.09746346756947906 0.9628703586932588 -0.03715702084284735 -0.0437350404618002
4895021000.0 -0.04543733236900786 0.12117073790618653 0.09589842272970472 0.9625464074000678 0.10876821244474053 0.9617113683781942 -0.03831661197519659 -0.0448283593414479
4900020000.0 -0.04576672183014481 0.12190036911307456 0.10707782106780193 0.9614753572185609 0.12006186622120799 0.9604106246036097 -0.039500415134182364 -0.04590601406067978
4905019000.0 -0.04607833048546999 0.12265555364731602 0.11824746979924307 0.9602684745048901 0.1313423194200283 0.958968117739762 -0.04070834700740237 -0.046967578013283266
4910018000.0 -0.046371023864093135 0.12343580658814192 0.12940549371993543 0.9589258071774203 0.14260745585529067 0.9573838807774575 -0.041940320358564355 -0.048012617226337005
4915017000.0 -0.04664368061088063 0.1242405990502269 0.1405500178730604 0.957447436904063 0.15385515380614972 0.9556579897118477 -0.043196243526479716 -0.049040690205468904
4920016000.0 -0.046895194090029214 0.12506935853635298 0.15167916838941775 0.9558334790092521 0.16508328720755117 0.9537905638879893 -0.04447601991054493 -0.05005134780385034
4925015000.0 -0.047124473978361996 0.12592146934587686 0.16279107331826914 0.9540840823550591 0.17628972685827352 0.951781766307307 -0.045779547443667364 -0.05104413311566272
4930014000.0 -0.04733044784654842 0.12679627303861893 0.1738838634478125 0.9521994291971635 0.18747234164492949 0.9496318038941369 -0.047106718053706594 -0.052018581394694105
4935013000.0 -0.047512062726469885 0.12769306895368068 0.1849556731145063 0.9501797350163704 0.19862899978053605 0.9473409277215421 -0.048457417114523046 -0.05297421999871759
4940012000.0 -0.04766828666292097 0.12861111478270357 0.19600464100045206 0.9480252483264086 0.20975757005621082 0.9449094331956541 -0.04983152288769393 -0.05391056836022312
4945011000.0 -0.0477981102479381 0.1295496271969776 0.2070289109181216 0.9457362504588757 0.22085592310450763 0.9423376601979475 -0.051228905956077354 -0.05482713798406607
4950010000.0 -0.04790054813603688 0.13050778252781262 0.21802663258179777 0.9433130553259329 0.23192193267293854 0.9396259931846362 -0.05264942865036268 -0.05572343247250883
4955009000.0 -0.047974640538657055 0.13148471749951476 0.22899596236503833 0.9407560091617174 0.24295347690606028 0.9367748612427724 -0.054092944469784444 -0.05659894757811383
4960008000.0 -0.04801945469617931 0.13247953001424612 0.23993506404365686 0.9380654902432489 0.25394843963462954 0.9337847381024926 -0.05555929749822382 -0.05745317128490172
4965007000.0 -0.04803408632589919 0.13349127998809338 0.2508421095236338 0.9352419085915434 0.264904711670176 0.93065614210483 -0.057048321816929495 -0.05828558391806868
4970006000.0 -0.048017661044326296 0.13451899023748812 0.2617152795535233 0.9322857056539549 0.2758201921033993 0.9273896361248702 -0.05855984091506828 -0.05909565828264315
4975005000.0 -0.04796933576228266 0.13556164741524024 0.27255276442083964 0.9291973539684122 0.2866927896046736 0.9239858274497448 -0.06009366709941037 -0.05988285983124125
4980004000.0 -0.04788830005125223 0.13661820299529062 0.28335276463214354 0.9259773568105271 0.2975204237250769 0.9204453676112925 -0.061649600904397486 -0.06064664686117144
4985003000.0 -0.047773777479466255 0.1376875743053248 0.29411349157637046 0.9226262478243248 0.30830102619616256 0.9167689521731017 -0.06322743050388892 -0.0613864707409973
4990002000.0 -0.04762502691626042 0.13876864560632107 0.30483316817118106 0.9191445906374613 0.31903254222681354 0.9129573204717859 -0.06482693112587697 -0.062101776166650476
4995001000.0 -0.04744134380326336 0.1398602692180877 0.31551002949197543 0.9155329784618534 0.329712931795381 0.9090112553125058 -0.06644786447148053 -0.06279200144711898
5000000000.0 -0.04722206139097507 0.14096126668983794 0.32614232338349414 0.9117920336803965 0.34034017093547886 0.9049315826185473 -0.06808997813952843 -0.06345657881967129
